Fe8
1.0
   2.8700000000000001    0.0000000000000000    0.0000000000000002
   0.0000000000000005    2.8700000000000001    0.0000000000000002
   0.0000000000000000    0.0000000000000000   22.9600000000000009
Fe
8
direct
   0.0000000000000000    0.0000000000000000    0.0937500000000000 Fe
   0.5000000000000000    0.5000000000000000    0.0312500000000000 Fe
   0.0000000000000000    0.0000000000000000    0.2187500000000000 Fe
   0.5000000000000000    0.5000000000000000    0.1562500000000000 Fe
   0.0000000000000000    0.0000000000000000    0.3437500000000000 Fe
   0.5000000000000000    0.5000000000000000    0.2812500000000000 Fe
   0.0000000000000000    0.0000000000000000    0.4687500000000000 Fe
   0.5000000000000000    0.5000000000000000    0.4062500000000000 Fe
