
     Program PWSCF v.6.7MaX starts on 28Aug2026 at 11: 0:17 

     This program is part of the open-source Quantum ESPRESSO suite
     for quantum simulation of materials; please cite
         "P. Giannozzi et al., J. Phys.:Condens. Matter 21 395502 (2009);
         "P. Giannozzi et al., J. Phys.:Condens. Matter 29 465901 (2017);
          URL http://www.quantum-espresso.org", 
     in publications or presentations arising from this work. More details at
     http://www.quantum-espresso.org/quote

     Parallel version (MPI), running on     1 processors

     MPI processes distributed on     1 nodes
     Reading input from relax.in

     Current dimensions of program PWSCF are:
     Max number of different atomic species (ntypx) = 10
     Max number of k-points (npk) =  40000
     Max angular momentum in pseudopotentials (lmaxx) =  3

     Subspace diagonalization in iterative solution of the eigenvalue problem:
     a serial algorithm will be used


     G-vector sticks info
     --------------------
     sticks:   dense  smooth     PW     G-vecs:    dense   smooth      PW
     Sum         845     421    137               147235    52221    9279



     bravais-lattice index     =            0
     lattice parameter (alat)  =       5.4235  a.u.
     unit-cell volume          =    1276.2398 (a.u.)^3
     number of atoms/cell      =            8
     number of atomic types    =            1
     number of electrons       =       128.00
     number of Kohn-Sham states=           77
     kinetic-energy cutoff     =      45.0000  Ry
     charge density cutoff     =     360.0000  Ry
     scf convergence threshold =      1.0E-08
     mixing beta               =       0.7000
     number of iterations used =            8  plain     mixing
     energy convergence thresh.=      1.0E-04
     force convergence thresh. =      1.0E-03
     Exchange-correlation= PBE
                           (   1   4   3   4   0   0   0)
     nstep                     =           50


     celldm(1)=   5.423514  celldm(2)=   0.000000  celldm(3)=   0.000000
     celldm(4)=   0.000000  celldm(5)=   0.000000  celldm(6)=   0.000000

     crystal axes: (cart. coord. in units of alat)
               a(1) = (   1.000000   0.000000   0.000000 )  
               a(2) = (   0.000000   1.000000   0.000000 )  
               a(3) = (   0.000000   0.000000   8.000000 )  

     reciprocal axes: (cart. coord. in units 2 pi/alat)
               b(1) = (  1.000000  0.000000  0.000000 )  
               b(2) = (  0.000000  1.000000  0.000000 )  
               b(3) = (  0.000000  0.000000  0.125000 )  


     PseudoPot. # 1 for Fe read from file:
     /usr/share/espresso/pseudo/Fe.pbe-spn-rrkjus_psl.0.2.1.UPF
     MD5 check sum: f9af58635850a145d9bd408d58feeb93
     Pseudo is Ultrasoft + core correction, Zval = 16.0
     Generated using "atomic" code by A. Dal Corso  v.5.0.2 svn rev. 9415
     Using radial grid of 1191 points,  6 beta functions with: 
                l(1) =   0
                l(2) =   0
                l(3) =   1
                l(4) =   1
                l(5) =   2
                l(6) =   2
     Q(r) pseudized with 0 coefficients 


     atomic species   valence    mass     pseudopotential
        Fe            16.00    55.84500     Fe( 1.00)

     No symmetry found



   Cartesian axes

     site n.     atom                  positions (alat units)
         1           Fe  tau(   1) = (   0.0000000   0.0000000   0.7500000  )
         2           Fe  tau(   2) = (   0.5000000   0.5000000   0.2500000  )
         3           Fe  tau(   3) = (   0.0000000   0.0000000   1.7500000  )
         4           Fe  tau(   4) = (   0.5000000   0.5000000   1.2500000  )
         5           Fe  tau(   5) = (   0.0000000   0.0000000   2.7500000  )
         6           Fe  tau(   6) = (   0.5000000   0.5000000   2.2500000  )
         7           Fe  tau(   7) = (   0.0000000   0.0000000   3.7500000  )
         8           Fe  tau(   8) = (   0.5000000   0.5000000   3.2500000  )

     number of k points=    10  Marzari-Vanderbilt smearing, width (Ry)=  0.0200
                       cart. coord. in units 2pi/alat
        k(    1) = (   0.0000000   0.0000000   0.0000000), wk =   0.1250000
        k(    2) = (   0.0000000   0.2500000   0.0000000), wk =   0.2500000
        k(    3) = (   0.0000000  -0.5000000   0.0000000), wk =   0.1250000
        k(    4) = (   0.2500000   0.0000000   0.0000000), wk =   0.2500000
        k(    5) = (   0.2500000   0.2500000   0.0000000), wk =   0.2500000
        k(    6) = (   0.2500000  -0.5000000   0.0000000), wk =   0.2500000
        k(    7) = (   0.2500000  -0.2500000   0.0000000), wk =   0.2500000
        k(    8) = (  -0.5000000   0.0000000   0.0000000), wk =   0.1250000
        k(    9) = (  -0.5000000   0.2500000   0.0000000), wk =   0.2500000
        k(   10) = (  -0.5000000  -0.5000000   0.0000000), wk =   0.1250000

     Dense  grid:   147235 G-vectors     FFT dimensions: (  36,  36, 270)

     Smooth grid:    52221 G-vectors     FFT dimensions: (  24,  24, 192)

     Estimated max dynamical RAM per process >     652.88 MB

     Check: negative core charge=   -0.000078

     Initial potential from superposition of free atoms

     starting charge  127.99649, renormalised to  128.00000

     negative rho (up, down):  6.911E-04 0.000E+00
     Starting wfcs are  104 randomized atomic wfcs

     total cpu time spent up to now is       15.8 secs

     Self-consistent Calculation

     iteration #  1     ecut=    45.00 Ry     beta= 0.70
     Davidson diagonalization with overlap
     ethr =  1.00E-02,  avg # of iterations =  2.0

     negative rho (up, down):  9.973E-04 0.000E+00

     total cpu time spent up to now is       49.2 secs

     total energy              =   -2008.89865549 Ry
     estimated scf accuracy    <      28.40153655 Ry

     iteration #  2     ecut=    45.00 Ry     beta= 0.70
     Davidson diagonalization with overlap
     ethr =  1.00E-02,  avg # of iterations = 14.8

     total cpu time spent up to now is      206.4 secs

     total energy              =   -1812.56584156 Ry
     estimated scf accuracy    <   10753.32950322 Ry

     iteration #  3     ecut=    45.00 Ry     beta= 0.70
     Davidson diagonalization with overlap
     ethr =  1.00E-02,  avg # of iterations = 10.2

     negative rho (up, down):  2.933E-06 0.000E+00

     total cpu time spent up to now is      312.6 secs

     total energy              =   -2019.09590350 Ry
     estimated scf accuracy    <    1030.29083028 Ry

     iteration #  4     ecut=    45.00 Ry     beta= 0.70
     Davidson diagonalization with overlap
     ethr =  1.00E-02,  avg # of iterations =  7.1

     negative rho (up, down):  1.505E-05 0.000E+00

     total cpu time spent up to now is      380.1 secs

     total energy              =   -2031.93346830 Ry
     estimated scf accuracy    <     121.53198104 Ry

     iteration #  5     ecut=    45.00 Ry     beta= 0.70
     Davidson diagonalization with overlap
     ethr =  1.00E-02,  avg # of iterations =  4.1

     negative rho (up, down):  1.881E-05 0.000E+00

     total cpu time spent up to now is      420.2 secs

     total energy              =   -2035.32485939 Ry
     estimated scf accuracy    <     145.91305589 Ry

     iteration #  6     ecut=    45.00 Ry     beta= 0.70
     Davidson diagonalization with overlap
     ethr =  1.00E-02,  avg # of iterations =  2.8

     negative rho (up, down):  5.384E-05 0.000E+00

     total cpu time spent up to now is      453.7 secs

     total energy              =   -2035.72123825 Ry
     estimated scf accuracy    <     128.65957241 Ry

     iteration #  7     ecut=    45.00 Ry     beta= 0.70
     Davidson diagonalization with overlap
     ethr =  1.00E-02,  avg # of iterations =  1.3

     negative rho (up, down):  1.886E-04 0.000E+00

     total cpu time spent up to now is      488.7 secs

     total energy              =   -2035.69976921 Ry
     estimated scf accuracy    <      93.68660043 Ry

     iteration #  8     ecut=    45.00 Ry     beta= 0.70
     Davidson diagonalization with overlap
     ethr =  1.00E-02,  avg # of iterations =  1.0

     negative rho (up, down):  2.886E-04 0.000E+00

     total cpu time spent up to now is      516.9 secs

     total energy              =   -2035.55398806 Ry
     estimated scf accuracy    <      85.20002412 Ry

     iteration #  9     ecut=    45.00 Ry     beta= 0.70
     Davidson diagonalization with overlap
     ethr =  1.00E-02,  avg # of iterations =  1.0

     negative rho (up, down):  4.606E-04 0.000E+00

     total cpu time spent up to now is      544.2 secs

     total energy              =   -2033.10858278 Ry
     estimated scf accuracy    <      82.67111764 Ry

     iteration # 10     ecut=    45.00 Ry     beta= 0.70
     Davidson diagonalization with overlap
     ethr =  1.00E-02,  avg # of iterations =  1.3

     negative rho (up, down):  9.568E-02 0.000E+00

     total cpu time spent up to now is      572.6 secs

     total energy              =   -2037.42031150 Ry
     estimated scf accuracy    <      39.54583470 Ry

     iteration # 11     ecut=    45.00 Ry     beta= 0.70
     Davidson diagonalization with overlap
     ethr =  1.00E-02,  avg # of iterations =  4.5

     negative rho (up, down):  1.365E-02 0.000E+00

     total cpu time spent up to now is      611.3 secs

     total energy              =   -2035.94479134 Ry
     estimated scf accuracy    <     255.91358982 Ry

     iteration # 12     ecut=    45.00 Ry     beta= 0.70
     Davidson diagonalization with overlap
     ethr =  1.00E-02,  avg # of iterations =  2.1

     negative rho (up, down):  9.465E-03 0.000E+00

     total cpu time spent up to now is      645.7 secs

     total energy              =   -2033.40286816 Ry
     estimated scf accuracy    <     175.36485407 Ry

     iteration # 13     ecut=    45.00 Ry     beta= 0.70
     Davidson diagonalization with overlap
     ethr =  1.00E-02,  avg # of iterations =  3.0

     negative rho (up, down):  7.352E-03 0.000E+00

     total cpu time spent up to now is      680.7 secs

     total energy              =   -2033.96243449 Ry
     estimated scf accuracy    <      49.67959052 Ry

     iteration # 14     ecut=    45.00 Ry     beta= 0.70
     Davidson diagonalization with overlap
     ethr =  1.00E-02,  avg # of iterations =  1.6

     negative rho (up, down):  1.772E-03 0.000E+00

     total cpu time spent up to now is      711.9 secs

     total energy              =   -2033.90298590 Ry
     estimated scf accuracy    <      12.96821248 Ry

     iteration # 15     ecut=    45.00 Ry     beta= 0.70
     Davidson diagonalization with overlap
     ethr =  1.00E-02,  avg # of iterations =  1.0

     negative rho (up, down):  7.392E-04 0.000E+00

     total cpu time spent up to now is      740.5 secs

     total energy              =   -2033.93174089 Ry
     estimated scf accuracy    <      15.59484837 Ry

     iteration # 16     ecut=    45.00 Ry     beta= 0.70
     Davidson diagonalization with overlap
     ethr =  1.00E-02,  avg # of iterations =  2.0

     negative rho (up, down):  4.638E-03 0.000E+00

     total cpu time spent up to now is      772.2 secs

     total energy              =   -2033.83045819 Ry
     estimated scf accuracy    <      71.44343238 Ry

     iteration # 17     ecut=    45.00 Ry     beta= 0.70
     Davidson diagonalization with overlap
     ethr =  1.00E-02,  avg # of iterations =  1.3

     negative rho (up, down):  5.043E-03 0.000E+00

     total cpu time spent up to now is      802.3 secs

     total energy              =   -2033.59161099 Ry
     estimated scf accuracy    <      46.60928065 Ry

     iteration # 18     ecut=    45.00 Ry     beta= 0.70
     Davidson diagonalization with overlap
     ethr =  1.00E-02,  avg # of iterations =  1.1

     negative rho (up, down):  8.011E-03 0.000E+00

     total cpu time spent up to now is      831.7 secs

     total energy              =   -2033.62055327 Ry
     estimated scf accuracy    <      17.58755689 Ry

     iteration # 19     ecut=    45.00 Ry     beta= 0.70
     Davidson diagonalization with overlap
     ethr =  1.00E-02,  avg # of iterations =  1.2

     negative rho (up, down):  3.253E-03 0.000E+00

     total cpu time spent up to now is      862.2 secs

     total energy              =   -2032.67456868 Ry
     estimated scf accuracy    <      35.05373317 Ry

     iteration # 20     ecut=    45.00 Ry     beta= 0.70
     Davidson diagonalization with overlap
     ethr =  1.00E-02,  avg # of iterations =  4.3

     negative rho (up, down):  1.075E-02 0.000E+00

     total cpu time spent up to now is      905.2 secs

     total energy              =   -2032.68710061 Ry
     estimated scf accuracy    <     130.17750334 Ry

     iteration # 21     ecut=    45.00 Ry     beta= 0.70
     Davidson diagonalization with overlap
     ethr =  1.00E-02,  avg # of iterations =  2.7

     negative rho (up, down):  9.533E-03 0.000E+00

     total cpu time spent up to now is      941.3 secs

     total energy              =   -2033.95923566 Ry
     estimated scf accuracy    <      18.91974379 Ry

     iteration # 22     ecut=    45.00 Ry     beta= 0.70
     Davidson diagonalization with overlap
     ethr =  1.00E-02,  avg # of iterations =  1.1

     negative rho (up, down):  7.831E-03 0.000E+00

     total cpu time spent up to now is      970.7 secs

     total energy              =   -2033.76234351 Ry
     estimated scf accuracy    <       7.64110653 Ry

     iteration # 23     ecut=    45.00 Ry     beta= 0.70
     Davidson diagonalization with overlap
     ethr =  5.97E-03,  avg # of iterations =  4.0

     negative rho (up, down):  1.838E-02 0.000E+00

     total cpu time spent up to now is     1008.0 secs

     total energy              =   -2033.88806339 Ry
     estimated scf accuracy    <       9.49312791 Ry

     iteration # 24     ecut=    45.00 Ry     beta= 0.70
     Davidson diagonalization with overlap
     ethr =  5.97E-03,  avg # of iterations =  3.5

     negative rho (up, down):  2.117E-02 0.000E+00

     total cpu time spent up to now is     1043.7 secs

     total energy              =   -2033.75021256 Ry
     estimated scf accuracy    <     119.01433549 Ry

     iteration # 25     ecut=    45.00 Ry     beta= 0.70
     Davidson diagonalization with overlap
     ethr =  5.97E-03,  avg # of iterations =  2.4

     negative rho (up, down):  2.222E-02 0.000E+00

     total cpu time spent up to now is     1080.4 secs

     total energy              =   -2033.41869317 Ry
     estimated scf accuracy    <     189.14294265 Ry

     iteration # 26     ecut=    45.00 Ry     beta= 0.70
     Davidson diagonalization with overlap
     ethr =  5.97E-03,  avg # of iterations =  1.2

     negative rho (up, down):  2.263E-02 0.000E+00

     total cpu time spent up to now is     1109.8 secs

     total energy              =   -2034.32802527 Ry
     estimated scf accuracy    <      39.03746309 Ry

     iteration # 27     ecut=    45.00 Ry     beta= 0.70
     Davidson diagonalization with overlap
     ethr =  5.97E-03,  avg # of iterations =  1.0

     negative rho (up, down):  1.918E-02 0.000E+00

     total cpu time spent up to now is     1138.6 secs

     total energy              =   -2034.19758154 Ry
     estimated scf accuracy    <      16.32285508 Ry

     iteration # 28     ecut=    45.00 Ry     beta= 0.70
     Davidson diagonalization with overlap
     ethr =  5.97E-03,  avg # of iterations =  1.0

     negative rho (up, down):  1.841E-02 0.000E+00

     total cpu time spent up to now is     1166.8 secs

     total energy              =   -2034.22608640 Ry
     estimated scf accuracy    <      14.98945762 Ry

     iteration # 29     ecut=    45.00 Ry     beta= 0.70
     Davidson diagonalization with overlap
     ethr =  5.97E-03,  avg # of iterations =  1.0

     negative rho (up, down):  1.343E-02 0.000E+00

     total cpu time spent up to now is     1195.1 secs

     total energy              =   -2034.11602691 Ry
     estimated scf accuracy    <       7.95653828 Ry

     iteration # 30     ecut=    45.00 Ry     beta= 0.70
     Davidson diagonalization with overlap
     ethr =  5.97E-03,  avg # of iterations =  1.0

     negative rho (up, down):  8.662E-03 0.000E+00

     total cpu time spent up to now is     1223.7 secs

     total energy              =   -2034.18109290 Ry
     estimated scf accuracy    <       5.66143701 Ry

     iteration # 31     ecut=    45.00 Ry     beta= 0.70
     Davidson diagonalization with overlap
     ethr =  4.42E-03,  avg # of iterations =  1.5

     negative rho (up, down):  1.334E-02 0.000E+00

     total cpu time spent up to now is     1254.6 secs

     total energy              =   -2033.24327442 Ry
     estimated scf accuracy    <       4.56341286 Ry

     iteration # 32     ecut=    45.00 Ry     beta= 0.70
     Davidson diagonalization with overlap
     ethr =  3.57E-03,  avg # of iterations =  6.8

     negative rho (up, down):  5.585E-04 0.000E+00

     total cpu time spent up to now is     1313.3 secs

     total energy              =   -2030.28454902 Ry
     estimated scf accuracy    <     245.64078286 Ry

     iteration # 33     ecut=    45.00 Ry     beta= 0.70
     Davidson diagonalization with overlap
     ethr =  3.57E-03,  avg # of iterations =  7.4

     negative rho (up, down):  5.329E-03 0.000E+00

     total cpu time spent up to now is     1356.7 secs

     total energy              =   -2033.21779509 Ry
     estimated scf accuracy    <     123.51461472 Ry

     iteration # 34     ecut=    45.00 Ry     beta= 0.70
     Davidson diagonalization with overlap
     ethr =  3.57E-03,  avg # of iterations =  4.3

     negative rho (up, down):  5.986E-03 0.000E+00

     total cpu time spent up to now is     1393.8 secs

     total energy              =   -2034.10429991 Ry
     estimated scf accuracy    <      25.19209240 Ry

     iteration # 35     ecut=    45.00 Ry     beta= 0.70
     Davidson diagonalization with overlap
     ethr =  3.57E-03,  avg # of iterations =  1.0

     negative rho (up, down):  3.889E-03 0.000E+00

     total cpu time spent up to now is     1423.8 secs

     total energy              =   -2034.14337645 Ry
     estimated scf accuracy    <       3.18325826 Ry

     iteration # 36     ecut=    45.00 Ry     beta= 0.70
     Davidson diagonalization with overlap
     ethr =  2.49E-03,  avg # of iterations =  1.5

     negative rho (up, down):  2.593E-03 0.000E+00

     total cpu time spent up to now is     1456.9 secs

     total energy              =   -2034.16425888 Ry
     estimated scf accuracy    <       2.01256854 Ry

     iteration # 37     ecut=    45.00 Ry     beta= 0.70
     Davidson diagonalization with overlap
     ethr =  1.57E-03,  avg # of iterations =  1.4

     negative rho (up, down):  1.477E-03 0.000E+00

     total cpu time spent up to now is     1488.8 secs

     total energy              =   -2034.17655661 Ry
     estimated scf accuracy    <       0.90083793 Ry

     iteration # 38     ecut=    45.00 Ry     beta= 0.70
     Davidson diagonalization with overlap
     ethr =  7.04E-04,  avg # of iterations =  2.1

     negative rho (up, down):  1.057E-03 0.000E+00

     total cpu time spent up to now is     1521.2 secs

     total energy              =   -2034.17754022 Ry
     estimated scf accuracy    <       0.69624561 Ry

     iteration # 39     ecut=    45.00 Ry     beta= 0.70
     Davidson diagonalization with overlap
     ethr =  5.44E-04,  avg # of iterations =  1.2

     negative rho (up, down):  1.642E-04 0.000E+00

     total cpu time spent up to now is     1551.5 secs

     total energy              =   -2034.16646151 Ry
     estimated scf accuracy    <       1.65772357 Ry

     iteration # 40     ecut=    45.00 Ry     beta= 0.70
     Davidson diagonalization with overlap
     ethr =  5.44E-04,  avg # of iterations =  3.9

     negative rho (up, down):  7.030E-03 0.000E+00

     total cpu time spent up to now is     1586.5 secs

     total energy              =   -2033.86167710 Ry
     estimated scf accuracy    <      33.21654682 Ry

     iteration # 41     ecut=    45.00 Ry     beta= 0.70
     Davidson diagonalization with overlap
     ethr =  5.44E-04,  avg # of iterations =  2.7

     negative rho (up, down):  4.607E-03 0.000E+00

     total cpu time spent up to now is     1620.8 secs

     total energy              =   -2034.15805416 Ry
     estimated scf accuracy    <       3.79535086 Ry

     iteration # 42     ecut=    45.00 Ry     beta= 0.70
     Davidson diagonalization with overlap
     ethr =  5.44E-04,  avg # of iterations =  1.0

     negative rho (up, down):  1.614E-03 0.000E+00

     total cpu time spent up to now is     1650.4 secs

     total energy              =   -2034.18653902 Ry
     estimated scf accuracy    <       0.12008837 Ry

     iteration # 43     ecut=    45.00 Ry     beta= 0.70
     Davidson diagonalization with overlap
     ethr =  9.38E-05,  avg # of iterations =  1.9

     negative rho (up, down):  9.193E-04 0.000E+00

     total cpu time spent up to now is     1682.3 secs

     total energy              =   -2034.18735044 Ry
     estimated scf accuracy    <       0.25159812 Ry

     iteration # 44     ecut=    45.00 Ry     beta= 0.70
     Davidson diagonalization with overlap
     ethr =  9.38E-05,  avg # of iterations =  1.0

     negative rho (up, down):  7.026E-04 0.000E+00

     total cpu time spent up to now is     1710.9 secs

     total energy              =   -2034.18939224 Ry
     estimated scf accuracy    <       0.02769027 Ry

     iteration # 45     ecut=    45.00 Ry     beta= 0.70
     Davidson diagonalization with overlap
     ethr =  2.16E-05,  avg # of iterations =  2.4

     negative rho (up, down):  6.777E-04 0.000E+00

     total cpu time spent up to now is     1744.0 secs

     total energy              =   -2034.18783425 Ry
     estimated scf accuracy    <       0.05531466 Ry

     iteration # 46     ecut=    45.00 Ry     beta= 0.70
     Davidson diagonalization with overlap
     ethr =  2.16E-05,  avg # of iterations =  2.3

     negative rho (up, down):  2.897E-03 0.000E+00

     total cpu time spent up to now is     1779.8 secs

     total energy              =   -2034.18242220 Ry
     estimated scf accuracy    <       0.83499852 Ry

     iteration # 47     ecut=    45.00 Ry     beta= 0.70
     Davidson diagonalization with overlap
     ethr =  2.16E-05,  avg # of iterations =  2.0

     negative rho (up, down):  2.844E-03 0.000E+00

     total cpu time spent up to now is     1815.7 secs

     total energy              =   -2034.18631333 Ry
     estimated scf accuracy    <       0.97088276 Ry

     iteration # 48     ecut=    45.00 Ry     beta= 0.70
     Davidson diagonalization with overlap
     ethr =  2.16E-05,  avg # of iterations =  1.0

     negative rho (up, down):  2.010E-03 0.000E+00

     total cpu time spent up to now is     1846.1 secs

     total energy              =   -2034.18801850 Ry
     estimated scf accuracy    <       0.15728643 Ry

     iteration # 49     ecut=    45.00 Ry     beta= 0.70
     Davidson diagonalization with overlap
     ethr =  2.16E-05,  avg # of iterations =  1.1

     negative rho (up, down):  1.235E-03 0.000E+00

     total cpu time spent up to now is     1876.6 secs

     total energy              =   -2034.18949512 Ry
     estimated scf accuracy    <       0.19805143 Ry

     iteration # 50     ecut=    45.00 Ry     beta= 0.70
     Davidson diagonalization with overlap
     ethr =  2.16E-05,  avg # of iterations =  1.0

     negative rho (up, down):  1.355E-03 0.000E+00

     total cpu time spent up to now is     1905.6 secs

     total energy              =   -2034.18924030 Ry
     estimated scf accuracy    <       0.09908888 Ry

     iteration # 51     ecut=    45.00 Ry     beta= 0.70
     Davidson diagonalization with overlap
     ethr =  2.16E-05,  avg # of iterations =  1.0

     negative rho (up, down):  1.153E-03 0.000E+00

     total cpu time spent up to now is     1934.5 secs

     total energy              =   -2034.19020209 Ry
     estimated scf accuracy    <       0.00043543 Ry

     iteration # 52     ecut=    45.00 Ry     beta= 0.70
     Davidson diagonalization with overlap
     ethr =  3.40E-07,  avg # of iterations =  4.3

     negative rho (up, down):  1.282E-03 0.000E+00

     total cpu time spent up to now is     1972.4 secs

     total energy              =   -2034.19022261 Ry
     estimated scf accuracy    <       0.00208793 Ry

     iteration # 53     ecut=    45.00 Ry     beta= 0.70
     Davidson diagonalization with overlap
     ethr =  3.40E-07,  avg # of iterations =  1.1

     negative rho (up, down):  1.273E-03 0.000E+00

     total cpu time spent up to now is     2001.5 secs

     total energy              =   -2034.19023238 Ry
     estimated scf accuracy    <       0.00011680 Ry

     iteration # 54     ecut=    45.00 Ry     beta= 0.70
     Davidson diagonalization with overlap
     ethr =  9.12E-08,  avg # of iterations =  1.8

     negative rho (up, down):  1.284E-03 0.000E+00

     total cpu time spent up to now is     2033.8 secs

     total energy              =   -2034.19023524 Ry
     estimated scf accuracy    <       0.00018289 Ry

     iteration # 55     ecut=    45.00 Ry     beta= 0.70
     Davidson diagonalization with overlap
     ethr =  9.12E-08,  avg # of iterations =  1.1

     negative rho (up, down):  1.301E-03 0.000E+00

     total cpu time spent up to now is     2061.8 secs

     total energy              =   -2034.19023273 Ry
     estimated scf accuracy    <       0.00052768 Ry

     iteration # 56     ecut=    45.00 Ry     beta= 0.70
     Davidson diagonalization with overlap
     ethr =  9.12E-08,  avg # of iterations =  1.0

     negative rho (up, down):  1.309E-03 0.000E+00

     total cpu time spent up to now is     2089.3 secs

     total energy              =   -2034.19023749 Ry
     estimated scf accuracy    <       0.00022906 Ry

     iteration # 57     ecut=    45.00 Ry     beta= 0.70
     Davidson diagonalization with overlap
     ethr =  9.12E-08,  avg # of iterations =  1.0

     negative rho (up, down):  1.321E-03 0.000E+00

     total cpu time spent up to now is     2117.9 secs

     total energy              =   -2034.19023922 Ry
     estimated scf accuracy    <       0.00003087 Ry

     iteration # 58     ecut=    45.00 Ry     beta= 0.70
     Davidson diagonalization with overlap
     ethr =  2.41E-08,  avg # of iterations =  1.1

     negative rho (up, down):  1.343E-03 0.000E+00

     total cpu time spent up to now is     2147.4 secs

     total energy              =   -2034.19023867 Ry
     estimated scf accuracy    <       0.00018428 Ry

     iteration # 59     ecut=    45.00 Ry     beta= 0.70
     Davidson diagonalization with overlap
     ethr =  2.41E-08,  avg # of iterations =  2.6

     negative rho (up, down):  1.328E-03 0.000E+00

     total cpu time spent up to now is     2181.2 secs

     total energy              =   -2034.19022920 Ry
     estimated scf accuracy    <       0.00258823 Ry

     iteration # 60     ecut=    45.00 Ry     beta= 0.70
     Davidson diagonalization with overlap
     ethr =  2.41E-08,  avg # of iterations =  1.9

     negative rho (up, down):  1.330E-03 0.000E+00

     total cpu time spent up to now is     2211.9 secs

     total energy              =   -2034.19023765 Ry
     estimated scf accuracy    <       0.00024253 Ry

     iteration # 61     ecut=    45.00 Ry     beta= 0.70
     Davidson diagonalization with overlap
     ethr =  2.41E-08,  avg # of iterations =  1.0

     negative rho (up, down):  1.332E-03 0.000E+00

     total cpu time spent up to now is     2241.1 secs

     total energy              =   -2034.19023978 Ry
     estimated scf accuracy    <       0.00010315 Ry

     iteration # 62     ecut=    45.00 Ry     beta= 0.70
     Davidson diagonalization with overlap
     ethr =  2.41E-08,  avg # of iterations =  1.0

     negative rho (up, down):  1.337E-03 0.000E+00

     total cpu time spent up to now is     2270.0 secs

     total energy              =   -2034.19024027 Ry
     estimated scf accuracy    <       0.00000127 Ry

     iteration # 63     ecut=    45.00 Ry     beta= 0.70
     Davidson diagonalization with overlap
     ethr =  9.93E-10,  avg # of iterations =  3.0

     negative rho (up, down):  1.337E-03 0.000E+00

     total cpu time spent up to now is     2304.9 secs

     total energy              =   -2034.19024026 Ry
     estimated scf accuracy    <       0.00000230 Ry

     iteration # 64     ecut=    45.00 Ry     beta= 0.70
     Davidson diagonalization with overlap
     ethr =  9.93E-10,  avg # of iterations =  2.3

     negative rho (up, down):  1.338E-03 0.000E+00

     total cpu time spent up to now is     2338.8 secs

     total energy              =   -2034.19023993 Ry
     estimated scf accuracy    <       0.00004350 Ry

     iteration # 65     ecut=    45.00 Ry     beta= 0.70
     Davidson diagonalization with overlap
     ethr =  9.93E-10,  avg # of iterations =  1.5

     negative rho (up, down):  1.340E-03 0.000E+00

     total cpu time spent up to now is     2369.4 secs

     total energy              =   -2034.19024032 Ry
     estimated scf accuracy    <       0.00000046 Ry

     iteration # 66     ecut=    45.00 Ry     beta= 0.70
     Davidson diagonalization with overlap
     ethr =  3.58E-10,  avg # of iterations =  2.5

     negative rho (up, down):  1.340E-03 0.000E+00

     total cpu time spent up to now is     2404.2 secs

     total energy              =   -2034.19024022 Ry
     estimated scf accuracy    <       0.00000819 Ry

     iteration # 67     ecut=    45.00 Ry     beta= 0.70
     Davidson diagonalization with overlap
     ethr =  3.58E-10,  avg # of iterations =  1.1

     negative rho (up, down):  1.340E-03 0.000E+00

     total cpu time spent up to now is     2435.0 secs

     total energy              =   -2034.19024033 Ry
     estimated scf accuracy    <       0.00000026 Ry

     iteration # 68     ecut=    45.00 Ry     beta= 0.70
     Davidson diagonalization with overlap
     ethr =  2.04E-10,  avg # of iterations =  1.5

     negative rho (up, down):  1.340E-03 0.000E+00

     total cpu time spent up to now is     2465.8 secs

     total energy              =   -2034.19024030 Ry
     estimated scf accuracy    <       0.00000808 Ry

     iteration # 69     ecut=    45.00 Ry     beta= 0.70
     Davidson diagonalization with overlap
     ethr =  2.04E-10,  avg # of iterations =  3.2

     negative rho (up, down):  1.342E-03 0.000E+00

     total cpu time spent up to now is     2501.0 secs

     total energy              =   -2034.19024009 Ry
     estimated scf accuracy    <       0.00005213 Ry

     iteration # 70     ecut=    45.00 Ry     beta= 0.70
     Davidson diagonalization with overlap
     ethr =  2.04E-10,  avg # of iterations =  2.6

     negative rho (up, down):  1.341E-03 0.000E+00

     total cpu time spent up to now is     2537.2 secs

     total energy              =   -2034.19024031 Ry
     estimated scf accuracy    <       0.00000170 Ry

     iteration # 71     ecut=    45.00 Ry     beta= 0.70
     Davidson diagonalization with overlap
     ethr =  2.04E-10,  avg # of iterations =  1.3

     negative rho (up, down):  1.341E-03 0.000E+00

     total cpu time spent up to now is     2570.8 secs

     total energy              =   -2034.19024031 Ry
     estimated scf accuracy    <       0.00000651 Ry

     iteration # 72     ecut=    45.00 Ry     beta= 0.70
     Davidson diagonalization with overlap
     ethr =  2.04E-10,  avg # of iterations =  1.0

     negative rho (up, down):  1.342E-03 0.000E+00

     total cpu time spent up to now is     2600.5 secs

     total energy              =   -2034.19024034 Ry
     estimated scf accuracy    <       0.00000003 Ry

     iteration # 73     ecut=    45.00 Ry     beta= 0.70
     Davidson diagonalization with overlap
     ethr =  2.67E-11,  avg # of iterations =  2.6

     negative rho (up, down):  1.342E-03 0.000E+00

     total cpu time spent up to now is     2633.6 secs

     total energy              =   -2034.19024033 Ry
     estimated scf accuracy    <       0.00000013 Ry

     iteration # 74     ecut=    45.00 Ry     beta= 0.70
     Davidson diagonalization with overlap
     ethr =  2.67E-11,  avg # of iterations =  1.1

     negative rho (up, down):  1.342E-03 0.000E+00

     total cpu time spent up to now is     2663.9 secs

     total energy              =   -2034.19024034 Ry
     estimated scf accuracy    <       0.00000004 Ry

     iteration # 75     ecut=    45.00 Ry     beta= 0.70
     Davidson diagonalization with overlap
     ethr =  2.67E-11,  avg # of iterations =  1.0

     negative rho (up, down):  1.342E-03 0.000E+00

     total cpu time spent up to now is     2692.0 secs

     total energy              =   -2034.19024034 Ry
     estimated scf accuracy    <       0.00000002 Ry

     iteration # 76     ecut=    45.00 Ry     beta= 0.70
     Davidson diagonalization with overlap
     ethr =  1.29E-11,  avg # of iterations =  1.7

     negative rho (up, down):  1.342E-03 0.000E+00

     total cpu time spent up to now is     2722.3 secs

     total energy              =   -2034.19024033 Ry
     estimated scf accuracy    <       0.00000018 Ry

     iteration # 77     ecut=    45.00 Ry     beta= 0.70
     Davidson diagonalization with overlap
     ethr =  1.29E-11,  avg # of iterations =  1.3

     negative rho (up, down):  1.342E-03 0.000E+00

     total cpu time spent up to now is     2751.9 secs

     total energy              =   -2034.19024034 Ry
     estimated scf accuracy    <       0.00000015 Ry

     iteration # 78     ecut=    45.00 Ry     beta= 0.70
     Davidson diagonalization with overlap
     ethr =  1.29E-11,  avg # of iterations =  1.0

     negative rho (up, down):  1.342E-03 0.000E+00

     total cpu time spent up to now is     2779.8 secs

     total energy              =   -2034.19024034 Ry
     estimated scf accuracy    <       0.00000003 Ry

     iteration # 79     ecut=    45.00 Ry     beta= 0.70
     Davidson diagonalization with overlap
     ethr =  1.29E-11,  avg # of iterations =  1.0

     negative rho (up, down):  1.342E-03 0.000E+00

     total cpu time spent up to now is     2807.6 secs

     total energy              =   -2034.19024034 Ry
     estimated scf accuracy    <       0.00000003 Ry

     iteration # 80     ecut=    45.00 Ry     beta= 0.70
     Davidson diagonalization with overlap
     ethr =  1.29E-11,  avg # of iterations =  1.0

     negative rho (up, down):  1.342E-03 0.000E+00

     total cpu time spent up to now is     2835.0 secs

     total energy              =   -2034.19024034 Ry
     estimated scf accuracy    <       0.00000003 Ry

     iteration # 81     ecut=    45.00 Ry     beta= 0.70
     Davidson diagonalization with overlap
     ethr =  1.29E-11,  avg # of iterations =  1.0

     negative rho (up, down):  1.342E-03 0.000E+00

     total cpu time spent up to now is     2862.5 secs

     total energy              =   -2034.19024034 Ry
     estimated scf accuracy    <       0.00000003 Ry

     iteration # 82     ecut=    45.00 Ry     beta= 0.70
     Davidson diagonalization with overlap
     ethr =  1.29E-11,  avg # of iterations =  1.0

     negative rho (up, down):  1.342E-03 0.000E+00

     total cpu time spent up to now is     2890.0 secs

     total energy              =   -2034.19024034 Ry
     estimated scf accuracy    <       0.00000002 Ry

     iteration # 83     ecut=    45.00 Ry     beta= 0.70
     Davidson diagonalization with overlap
     ethr =  1.29E-11,  avg # of iterations =  1.0

     negative rho (up, down):  1.342E-03 0.000E+00

     total cpu time spent up to now is     2917.4 secs

     End of self-consistent calculation

          k = 0.0000 0.0000 0.0000 (  6457 PWs)   bands (ev):

   -80.4906 -80.4772 -80.4642 -80.4280 -80.3848 -80.3750 -80.0605 -80.0604
   -46.5750 -46.5750 -46.5678 -46.5531 -46.5368 -46.5368 -46.5305 -46.5030
   -46.5030 -46.4672 -46.4353 -46.4353 -46.3859 -46.3562 -46.3562 -46.3247
   -46.3206 -46.3206 -46.1033 -46.0996 -46.0729 -46.0729 -46.0716 -46.0716
    -1.4863  -0.6849   0.5181   1.8323   2.7281   2.7333   2.7916   3.1033
     3.2083   3.3275   3.6672   4.3586   5.0503   5.0503   5.0653   5.0985
     5.0985   5.1251   5.2404   5.2404   5.3669   5.5293   5.5293   5.6834
     5.7215   5.9527   5.9527   6.1647   6.1722   6.2053   6.2087   6.4476
     6.4560   6.4560   6.6215   6.6245   6.8300   6.9656   6.9656   6.9928
     7.2427   7.2685   7.3303   7.3303   7.4114

          k = 0.0000 0.2500 0.0000 (  6508 PWs)   bands (ev):

   -80.4741 -80.4666 -80.4579 -80.4281 -80.3914 -80.3865 -80.0594 -80.0594
   -46.6294 -46.6228 -46.5835 -46.5823 -46.5350 -46.5343 -46.5141 -46.5117
   -46.4923 -46.4569 -46.4468 -46.4399 -46.3770 -46.3700 -46.3647 -46.3560
   -46.3259 -46.3125 -46.0968 -46.0965 -46.0935 -46.0935 -46.0787 -46.0780
    -0.2819   0.4340   1.4266   2.3547   2.9595   3.0880   3.2288   3.3946
     3.4697   3.7182   4.2403   4.4589   4.4597   4.7271   4.7597   4.7677
     4.9390   4.9951   5.0748   5.1632   5.3044   5.5406   5.5516   5.7681
     5.8241   6.0775   6.1098   6.1186   6.2582   6.2653   6.2909   6.4113
     6.4223   6.5123   6.5825   6.6217   6.7258   6.7992   6.8199   6.9422
     7.2503   7.3342   7.5073   7.5333   7.5572

          k = 0.0000-0.5000 0.0000 (  6560 PWs)   bands (ev):

   -80.4546 -80.4546 -80.4373 -80.4373 -80.4028 -80.4028 -80.0584 -80.0584
   -46.6715 -46.6715 -46.6138 -46.6138 -46.5562 -46.5562 -46.4752 -46.4752
   -46.4579 -46.4579 -46.4450 -46.4450 -46.4178 -46.4178 -46.3619 -46.3619
   -46.3179 -46.3179 -46.1142 -46.1142 -46.0919 -46.0919 -46.0842 -46.0842
     2.3245   2.3245   2.3371   2.3371   2.4991   2.4991   3.3910   3.3910
     4.0618   4.0618   4.4218   4.4218   4.5297   4.5297   4.7814   4.7814
     4.9423   4.9423   5.4280   5.4280   5.5828   5.5828   5.6075   5.6075
     5.9686   5.9686   6.3029   6.3029   6.4242   6.4242   6.4871   6.4871
     6.5165   6.5165   6.9813   6.9813   7.3988   7.3988   7.5006   7.5006
     7.6238   7.6238   7.6453   7.6453   7.7549

          k = 0.2500 0.0000 0.0000 (  6508 PWs)   bands (ev):

   -80.4741 -80.4666 -80.4579 -80.4281 -80.3914 -80.3865 -80.0594 -80.0594
   -46.6294 -46.6228 -46.5835 -46.5823 -46.5350 -46.5343 -46.5141 -46.5117
   -46.4923 -46.4569 -46.4468 -46.4399 -46.3770 -46.3700 -46.3647 -46.3560
   -46.3259 -46.3125 -46.0968 -46.0965 -46.0935 -46.0935 -46.0787 -46.0780
    -0.2819   0.4340   1.4266   2.3547   2.9595   3.0880   3.2288   3.3946
     3.4697   3.7182   4.2403   4.4589   4.4597   4.7271   4.7597   4.7677
     4.9390   4.9951   5.0748   5.1632   5.3044   5.5406   5.5516   5.7681
     5.8241   6.0775   6.1098   6.1186   6.2582   6.2653   6.2909   6.4113
     6.4223   6.5123   6.5825   6.6217   6.7258   6.7992   6.8199   6.9422
     7.2503   7.3342   7.5073   7.5333   7.5572

          k = 0.2500 0.2500 0.0000 (  6498 PWs)   bands (ev):

   -80.4628 -80.4597 -80.4524 -80.4276 -80.3947 -80.3930 -80.0578 -80.0577
   -46.6232 -46.6057 -46.6029 -46.5799 -46.5639 -46.5595 -46.5368 -46.5283
   -46.5114 -46.4828 -46.4568 -46.4143 -46.3695 -46.3685 -46.3600 -46.3464
   -46.3459 -46.3252 -46.1061 -46.1057 -46.0929 -46.0922 -46.0901 -46.0897
     0.7765   1.4641   2.3787   3.1002   3.3501   3.5585   3.7394   3.8431
     3.8823   3.9562   4.0564   4.0875   4.2278   4.2677   4.3317   4.3583
     4.4434   4.5029   4.5864   4.7842   4.8061   5.1362   5.7699   5.8406
     5.8407   5.9961   6.3400   6.3644   6.4641   6.4727   6.5081   6.5168
     6.5923   6.6032   6.6698   6.7749   6.7752   6.7791   6.8478   6.9164
     7.1136   7.4389   7.4519   8.1801   9.1449

          k = 0.2500-0.5000 0.0000 (  6510 PWs)   bands (ev):

   -80.4523 -80.4523 -80.4350 -80.4350 -80.4005 -80.4005 -80.0561 -80.0561
   -46.6294 -46.6294 -46.6174 -46.6174 -46.6079 -46.6079 -46.5134 -46.5134
   -46.4727 -46.4727 -46.4458 -46.4458 -46.3881 -46.3881 -46.3482 -46.3482
   -46.3406 -46.3406 -46.1132 -46.1132 -46.1083 -46.1083 -46.0869 -46.0869
     2.6345   2.6345   3.0376   3.0376   3.1963   3.1963   3.6005   3.6005
     3.9360   3.9360   4.2119   4.2119   4.2882   4.2882   4.4992   4.4992
     4.6537   4.6537   4.7468   4.7468   5.1613   5.1613   5.8352   5.8352
     6.2433   6.2433   6.3857   6.3857   6.4651   6.4651   6.5971   6.5971
     6.6846   6.6846   6.8054   6.8054   6.8996   6.8996   7.0925   7.0925
     8.0237   8.0237   8.7749   8.7749   9.6835

          k = 0.2500-0.2500 0.0000 (  6498 PWs)   bands (ev):

   -80.4628 -80.4597 -80.4524 -80.4276 -80.3947 -80.3930 -80.0578 -80.0577
   -46.6232 -46.6057 -46.6029 -46.5799 -46.5639 -46.5595 -46.5368 -46.5283
   -46.5114 -46.4828 -46.4568 -46.4143 -46.3695 -46.3685 -46.3600 -46.3464
   -46.3459 -46.3252 -46.1061 -46.1057 -46.0929 -46.0922 -46.0901 -46.0897
     0.7765   1.4641   2.3787   3.1002   3.3501   3.5585   3.7394   3.8431
     3.8823   3.9562   4.0564   4.0875   4.2278   4.2677   4.3317   4.3583
     4.4434   4.5029   4.5864   4.7842   4.8061   5.1362   5.7699   5.8406
     5.8407   5.9961   6.3400   6.3644   6.4641   6.4727   6.5081   6.5168
     6.5923   6.6032   6.6698   6.7749   6.7752   6.7791   6.8478   6.9164
     7.1136   7.4389   7.4519   8.1801   9.1449

          k =-0.5000 0.0000 0.0000 (  6560 PWs)   bands (ev):

   -80.4546 -80.4546 -80.4373 -80.4373 -80.4028 -80.4028 -80.0584 -80.0584
   -46.6715 -46.6715 -46.6138 -46.6138 -46.5562 -46.5562 -46.4752 -46.4752
   -46.4579 -46.4579 -46.4450 -46.4450 -46.4178 -46.4178 -46.3619 -46.3619
   -46.3179 -46.3179 -46.1142 -46.1142 -46.0919 -46.0919 -46.0842 -46.0842
     2.3245   2.3245   2.3371   2.3371   2.4991   2.4991   3.3910   3.3910
     4.0618   4.0618   4.4218   4.4218   4.5297   4.5297   4.7814   4.7814
     4.9423   4.9423   5.4280   5.4280   5.5828   5.5828   5.6075   5.6075
     5.9686   5.9686   6.3029   6.3029   6.4242   6.4242   6.4871   6.4871
     6.5165   6.5165   6.9813   6.9813   7.3988   7.3988   7.5006   7.5006
     7.6238   7.6238   7.6453   7.6453   7.7550

          k =-0.5000 0.2500 0.0000 (  6510 PWs)   bands (ev):

   -80.4523 -80.4523 -80.4350 -80.4350 -80.4005 -80.4005 -80.0561 -80.0561
   -46.6294 -46.6294 -46.6174 -46.6174 -46.6079 -46.6079 -46.5134 -46.5134
   -46.4727 -46.4727 -46.4458 -46.4458 -46.3881 -46.3881 -46.3482 -46.3482
   -46.3406 -46.3406 -46.1132 -46.1132 -46.1083 -46.1083 -46.0869 -46.0869
     2.6345   2.6345   3.0376   3.0376   3.1963   3.1963   3.6005   3.6005
     3.9360   3.9360   4.2119   4.2119   4.2882   4.2882   4.4992   4.4992
     4.6537   4.6537   4.7468   4.7468   5.1613   5.1613   5.8352   5.8352
     6.2433   6.2433   6.3857   6.3857   6.4651   6.4651   6.5971   6.5971
     6.6846   6.6846   6.8054   6.8054   6.8996   6.8996   7.0925   7.0925
     8.0237   8.0237   8.7749   8.7749   9.6835

          k =-0.5000-0.5000 0.0000 (  6576 PWs)   bands (ev):

   -80.4502 -80.4502 -80.4328 -80.4328 -80.3984 -80.3984 -80.0541 -80.0541
   -46.6795 -46.6795 -46.6277 -46.6277 -46.5722 -46.5722 -46.4817 -46.4817
   -46.4781 -46.4781 -46.4550 -46.4550 -46.4373 -46.4372 -46.3796 -46.3796
   -46.3288 -46.3288 -46.1133 -46.1133 -46.1127 -46.1127 -46.1069 -46.1069
     2.4669   2.4669   2.9913   2.9913   3.6239   3.6239   3.8624   3.8624
     3.8767   3.8767   3.9455   3.9455   4.1393   4.1393   4.3341   4.3341
     4.5192   4.5192   5.0830   5.0830   5.9000   5.9000   6.5492   6.5492
     6.6285   6.6285   6.7064   6.7064   6.7365   6.7365   6.7557   6.7557
     6.7701   6.7701   6.7867   6.7867   7.1146   7.1146   7.1635   7.1635
     8.1355   8.1355   9.8114   9.8114  11.5833

     the Fermi energy is     6.5842 ev

!    total energy              =   -2034.19024034 Ry
     estimated scf accuracy    <          2.0E-09 Ry
     smearing contrib. (-TS)   =      -0.02112215 Ry
     internal energy E=F+TS    =   -2034.16911819 Ry

     The total energy is F=E-TS. E is the sum of the following terms:
     one-electron contribution =  -13688.32828496 Ry
     hartree contribution      =    6867.89169209 Ry
     xc contribution           =    -277.06919521 Ry
     ewald contribution        =    5063.33666989 Ry

     convergence has been achieved in  83 iterations

     negative rho (up, down):  1.342E-03 0.000E+00

     Forces acting on atoms (cartesian axes, Ry/au):

     atom    1 type  1   force =    -0.00000001   -0.00000001   -0.03232000
     atom    2 type  1   force =    -0.00000000    0.00000000    0.06451925
     atom    3 type  1   force =     0.00000001   -0.00000001    0.01180876
     atom    4 type  1   force =    -0.00000000    0.00000001    0.00357550
     atom    5 type  1   force =     0.00000001    0.00000001   -0.00357076
     atom    6 type  1   force =     0.00000000   -0.00000001   -0.01178238
     atom    7 type  1   force =    -0.00000000   -0.00000000   -0.06454152
     atom    8 type  1   force =    -0.00000001    0.00000000    0.03231115

     Total force =     0.064542     Total SCF correction =     0.000174

     BFGS Geometry Optimization
     Energy error            =      0.0E+00
     Gradient error          =      6.5E-02

     number of scf cycles    =   1
     number of bfgs steps    =   0

     energy   new            =   -2034.1902403354 Ry

     new trust radius        =       0.0645415247 bohr
     new conv_thr            =       0.0000000100 Ry


ATOMIC_POSITIONS (angstrom)
Fe            0.0000000000        0.0000000000        2.1525000000    0   0   0
Fe            1.4350000000        1.4350000000        0.7175000000    0   0   0
Fe            0.0000000000        0.0000000000        5.0225000000    0   0   0
Fe            1.4350000000        1.4350000000        3.5875000000    0   0   0
Fe            0.0000000000        0.0000000000        7.8925000000    0   0   0
Fe            1.4350000000        1.4350000000        6.4575000000    0   0   0
Fe           -0.0000000026       -0.0000000002       10.7283460960
Fe            1.4350000000        1.4350000000        9.3275000000    0   0   0



     Writing output data file ./tmp/fe_clean_fe_surface.save/
     NEW-OLD atomic charge density approx. for the potential

     Check: negative core charge=   -0.000079

     negative rho (up, down):  1.347E-03 0.000E+00

     total cpu time spent up to now is     2928.0 secs

     Self-consistent Calculation

     iteration #  1     ecut=    45.00 Ry     beta= 0.70
     Davidson diagonalization with overlap
     ethr =  1.00E-06,  avg # of iterations =  9.5

     negative rho (up, down):  1.370E-03 0.000E+00

     total cpu time spent up to now is     3014.6 secs

     total energy              =   -2034.16852294 Ry
     estimated scf accuracy    <       0.02985450 Ry

     iteration #  2     ecut=    45.00 Ry     beta= 0.70
     Davidson diagonalization with overlap
     ethr =  2.33E-05,  avg # of iterations =  9.6

     negative rho (up, down):  1.935E-02 0.000E+00

     total cpu time spent up to now is     3084.3 secs

     total energy              =   -2033.73866842 Ry
     estimated scf accuracy    <      59.73287749 Ry

     iteration #  3     ecut=    45.00 Ry     beta= 0.70
     Davidson diagonalization with overlap
     ethr =  2.33E-05,  avg # of iterations = 10.0

     negative rho (up, down):  1.847E-02 0.000E+00

     total cpu time spent up to now is     3142.7 secs

     total energy              =   -2033.68611772 Ry
     estimated scf accuracy    <     160.29291563 Ry

     iteration #  4     ecut=    45.00 Ry     beta= 0.70
     Davidson diagonalization with overlap
     ethr =  2.33E-05,  avg # of iterations =  7.9

     negative rho (up, down):  1.673E-02 0.000E+00

     total cpu time spent up to now is     3189.8 secs

     total energy              =   -2033.97873842 Ry
     estimated scf accuracy    <      48.45135513 Ry

     iteration #  5     ecut=    45.00 Ry     beta= 0.70
     Davidson diagonalization with overlap
     ethr =  2.33E-05,  avg # of iterations =  6.1

     negative rho (up, down):  7.388E-03 0.000E+00

     total cpu time spent up to now is     3234.9 secs

     total energy              =   -2034.16148936 Ry
     estimated scf accuracy    <       2.89877464 Ry

     iteration #  6     ecut=    45.00 Ry     beta= 0.70
     Davidson diagonalization with overlap
     ethr =  2.33E-05,  avg # of iterations =  4.4

     negative rho (up, down):  3.106E-03 0.000E+00

     total cpu time spent up to now is     3269.5 secs

     total energy              =   -2034.19170808 Ry
     estimated scf accuracy    <       0.22372534 Ry

     iteration #  7     ecut=    45.00 Ry     beta= 0.70
     Davidson diagonalization with overlap
     ethr =  2.33E-05,  avg # of iterations =  1.0

     negative rho (up, down):  2.230E-03 0.000E+00

     total cpu time spent up to now is     3296.9 secs

     total energy              =   -2034.19326669 Ry
     estimated scf accuracy    <       0.09219029 Ry

     iteration #  8     ecut=    45.00 Ry     beta= 0.70
     Davidson diagonalization with overlap
     ethr =  2.33E-05,  avg # of iterations =  3.1

     negative rho (up, down):  2.029E-03 0.000E+00

     total cpu time spent up to now is     3327.0 secs

     total energy              =   -2034.19293282 Ry
     estimated scf accuracy    <       0.06153146 Ry

     iteration #  9     ecut=    45.00 Ry     beta= 0.70
     Davidson diagonalization with overlap
     ethr =  2.33E-05,  avg # of iterations =  1.0

     negative rho (up, down):  1.550E-03 0.000E+00

     total cpu time spent up to now is     3354.5 secs

     total energy              =   -2034.19414883 Ry
     estimated scf accuracy    <       0.00167526 Ry

     iteration # 10     ecut=    45.00 Ry     beta= 0.70
     Davidson diagonalization with overlap
     ethr =  1.31E-06,  avg # of iterations =  3.8

     negative rho (up, down):  1.452E-03 0.000E+00

     total cpu time spent up to now is     3389.1 secs

     total energy              =   -2034.19403195 Ry
     estimated scf accuracy    <       0.01782232 Ry

     iteration # 11     ecut=    45.00 Ry     beta= 0.70
     Davidson diagonalization with overlap
     ethr =  1.31E-06,  avg # of iterations =  2.6

     negative rho (up, down):  1.436E-03 0.000E+00

     total cpu time spent up to now is     3422.4 secs

     total energy              =   -2034.19428742 Ry
     estimated scf accuracy    <       0.00549534 Ry

     iteration # 12     ecut=    45.00 Ry     beta= 0.70
     Davidson diagonalization with overlap
     ethr =  1.31E-06,  avg # of iterations =  2.1

     negative rho (up, down):  1.415E-03 0.000E+00

     total cpu time spent up to now is     3455.1 secs

     total energy              =   -2034.19434982 Ry
     estimated scf accuracy    <       0.00139310 Ry

     iteration # 13     ecut=    45.00 Ry     beta= 0.70
     Davidson diagonalization with overlap
     ethr =  1.09E-06,  avg # of iterations =  1.0

     negative rho (up, down):  1.407E-03 0.000E+00

     total cpu time spent up to now is     3482.7 secs

     total energy              =   -2034.19436174 Ry
     estimated scf accuracy    <       0.00016085 Ry

     iteration # 14     ecut=    45.00 Ry     beta= 0.70
     Davidson diagonalization with overlap
     ethr =  1.26E-07,  avg # of iterations =  2.0

     negative rho (up, down):  1.408E-03 0.000E+00

     total cpu time spent up to now is     3512.3 secs

     total energy              =   -2034.19435942 Ry
     estimated scf accuracy    <       0.00036861 Ry

     iteration # 15     ecut=    45.00 Ry     beta= 0.70
     Davidson diagonalization with overlap
     ethr =  1.26E-07,  avg # of iterations =  3.8

     negative rho (up, down):  1.464E-03 0.000E+00

     total cpu time spent up to now is     3547.5 secs

     total energy              =   -2034.19418602 Ry
     estimated scf accuracy    <       0.01460044 Ry

     iteration # 16     ecut=    45.00 Ry     beta= 0.70
     Davidson diagonalization with overlap
     ethr =  1.26E-07,  avg # of iterations =  3.0

     negative rho (up, down):  1.411E-03 0.000E+00

     total cpu time spent up to now is     3580.9 secs

     total energy              =   -2034.19435818 Ry
     estimated scf accuracy    <       0.00057925 Ry

     iteration # 17     ecut=    45.00 Ry     beta= 0.70
     Davidson diagonalization with overlap
     ethr =  1.26E-07,  avg # of iterations =  1.0

     negative rho (up, down):  1.408E-03 0.000E+00

     total cpu time spent up to now is     3608.2 secs

     total energy              =   -2034.19436535 Ry
     estimated scf accuracy    <       0.00014289 Ry

     iteration # 18     ecut=    45.00 Ry     beta= 0.70
     Davidson diagonalization with overlap
     ethr =  1.12E-07,  avg # of iterations =  1.4

     negative rho (up, down):  1.412E-03 0.000E+00

     total cpu time spent up to now is     3637.9 secs

     total energy              =   -2034.19436127 Ry
     estimated scf accuracy    <       0.00064783 Ry

     iteration # 19     ecut=    45.00 Ry     beta= 0.70
     Davidson diagonalization with overlap
     ethr =  1.12E-07,  avg # of iterations =  1.0

     negative rho (up, down):  1.408E-03 0.000E+00

     total cpu time spent up to now is     3665.5 secs

     total energy              =   -2034.19436690 Ry
     estimated scf accuracy    <       0.00021417 Ry

     iteration # 20     ecut=    45.00 Ry     beta= 0.70
     Davidson diagonalization with overlap
     ethr =  1.12E-07,  avg # of iterations =  1.0

     negative rho (up, down):  1.408E-03 0.000E+00

     total cpu time spent up to now is     3693.1 secs

     total energy              =   -2034.19436610 Ry
     estimated scf accuracy    <       0.00014476 Ry

     iteration # 21     ecut=    45.00 Ry     beta= 0.70
     Davidson diagonalization with overlap
     ethr =  1.12E-07,  avg # of iterations =  1.0

     negative rho (up, down):  1.408E-03 0.000E+00

     total cpu time spent up to now is     3720.9 secs

     total energy              =   -2034.19436741 Ry
     estimated scf accuracy    <       0.00007896 Ry

     iteration # 22     ecut=    45.00 Ry     beta= 0.70
     Davidson diagonalization with overlap
     ethr =  6.17E-08,  avg # of iterations =  1.0

     negative rho (up, down):  1.408E-03 0.000E+00

     total cpu time spent up to now is     3748.3 secs

     total energy              =   -2034.19436824 Ry
     estimated scf accuracy    <       0.00000311 Ry

     iteration # 23     ecut=    45.00 Ry     beta= 0.70
     Davidson diagonalization with overlap
     ethr =  2.43E-09,  avg # of iterations =  1.5

     negative rho (up, down):  1.408E-03 0.000E+00

     total cpu time spent up to now is     3778.2 secs

     total energy              =   -2034.19436830 Ry
     estimated scf accuracy    <       0.00000029 Ry

     iteration # 24     ecut=    45.00 Ry     beta= 0.70
     Davidson diagonalization with overlap
     ethr =  2.28E-10,  avg # of iterations =  4.4

     negative rho (up, down):  1.408E-03 0.000E+00

     total cpu time spent up to now is     3814.8 secs

     total energy              =   -2034.19436828 Ry
     estimated scf accuracy    <       0.00000119 Ry

     iteration # 25     ecut=    45.00 Ry     beta= 0.70
     Davidson diagonalization with overlap
     ethr =  2.28E-10,  avg # of iterations =  4.7

     negative rho (up, down):  1.408E-03 0.000E+00

     total cpu time spent up to now is     3853.8 secs

     total energy              =   -2034.19436705 Ry
     estimated scf accuracy    <       0.00021340 Ry

     iteration # 26     ecut=    45.00 Ry     beta= 0.70
     Davidson diagonalization with overlap
     ethr =  2.28E-10,  avg # of iterations =  4.9

     negative rho (up, down):  1.408E-03 0.000E+00

     total cpu time spent up to now is     3893.7 secs

     total energy              =   -2034.19436797 Ry
     estimated scf accuracy    <       0.00009224 Ry

     iteration # 27     ecut=    45.00 Ry     beta= 0.70
     Davidson diagonalization with overlap
     ethr =  2.28E-10,  avg # of iterations =  2.6

     negative rho (up, down):  1.408E-03 0.000E+00

     total cpu time spent up to now is     3927.3 secs

     total energy              =   -2034.19436833 Ry
     estimated scf accuracy    <       0.00000035 Ry

     iteration # 28     ecut=    45.00 Ry     beta= 0.70
     Davidson diagonalization with overlap
     ethr =  2.28E-10,  avg # of iterations =  1.3

     negative rho (up, down):  1.408E-03 0.000E+00

     total cpu time spent up to now is     3956.2 secs

     total energy              =   -2034.19436830 Ry
     estimated scf accuracy    <       0.00000615 Ry

     iteration # 29     ecut=    45.00 Ry     beta= 0.70
     Davidson diagonalization with overlap
     ethr =  2.28E-10,  avg # of iterations =  1.1

     negative rho (up, down):  1.408E-03 0.000E+00

     total cpu time spent up to now is     3984.0 secs

     total energy              =   -2034.19436834 Ry
     estimated scf accuracy    <       0.00000070 Ry

     iteration # 30     ecut=    45.00 Ry     beta= 0.70
     Davidson diagonalization with overlap
     ethr =  2.28E-10,  avg # of iterations =  1.0

     negative rho (up, down):  1.408E-03 0.000E+00

     total cpu time spent up to now is     4011.2 secs

     total energy              =   -2034.19436834 Ry
     estimated scf accuracy    <       0.00000016 Ry

     iteration # 31     ecut=    45.00 Ry     beta= 0.70
     Davidson diagonalization with overlap
     ethr =  1.29E-10,  avg # of iterations =  1.0

     negative rho (up, down):  1.408E-03 0.000E+00

     total cpu time spent up to now is     4038.6 secs

     total energy              =   -2034.19436833 Ry
     estimated scf accuracy    <       0.00000094 Ry

     iteration # 32     ecut=    45.00 Ry     beta= 0.70
     Davidson diagonalization with overlap
     ethr =  1.29E-10,  avg # of iterations =  1.4

     negative rho (up, down):  1.408E-03 0.000E+00

     total cpu time spent up to now is     4066.6 secs

     total energy              =   -2034.19436833 Ry
     estimated scf accuracy    <       0.00000159 Ry

     iteration # 33     ecut=    45.00 Ry     beta= 0.70
     Davidson diagonalization with overlap
     ethr =  1.29E-10,  avg # of iterations =  1.1

     negative rho (up, down):  1.408E-03 0.000E+00

     total cpu time spent up to now is     4094.6 secs

     total energy              =   -2034.19436834 Ry
     estimated scf accuracy    <       0.00000019 Ry

     iteration # 34     ecut=    45.00 Ry     beta= 0.70
     Davidson diagonalization with overlap
     ethr =  1.29E-10,  avg # of iterations =  1.0

     negative rho (up, down):  1.408E-03 0.000E+00

     total cpu time spent up to now is     4121.9 secs

     total energy              =   -2034.19436834 Ry
     estimated scf accuracy    <       0.00000001 Ry

     iteration # 35     ecut=    45.00 Ry     beta= 0.70
     Davidson diagonalization with overlap
     ethr =  8.11E-12,  avg # of iterations =  2.3

     negative rho (up, down):  1.408E-03 0.000E+00

     total cpu time spent up to now is     4153.4 secs

     total energy              =   -2034.19436834 Ry
     estimated scf accuracy    <       0.00000038 Ry

     iteration # 36     ecut=    45.00 Ry     beta= 0.70
     Davidson diagonalization with overlap
     ethr =  8.11E-12,  avg # of iterations =  2.7

     negative rho (up, down):  1.408E-03 0.000E+00

     total cpu time spent up to now is     4186.9 secs

     total energy              =   -2034.19436834 Ry
     estimated scf accuracy    <       0.00000223 Ry

     iteration # 37     ecut=    45.00 Ry     beta= 0.70
     Davidson diagonalization with overlap
     ethr =  8.11E-12,  avg # of iterations =  2.0

     negative rho (up, down):  1.408E-03 0.000E+00

     total cpu time spent up to now is     4219.4 secs

     total energy              =   -2034.19436834 Ry
     estimated scf accuracy    <       0.00000002 Ry

     iteration # 38     ecut=    45.00 Ry     beta= 0.70
     Davidson diagonalization with overlap
     ethr =  8.11E-12,  avg # of iterations =  1.6

     negative rho (up, down):  1.408E-03 0.000E+00

     total cpu time spent up to now is     4249.7 secs

     total energy              =   -2034.19436834 Ry
     estimated scf accuracy    <       0.00000024 Ry

     iteration # 39     ecut=    45.00 Ry     beta= 0.70
     Davidson diagonalization with overlap
     ethr =  8.11E-12,  avg # of iterations =  1.6

     negative rho (up, down):  1.408E-03 0.000E+00

     total cpu time spent up to now is     4280.0 secs

     total energy              =   -2034.19436834 Ry
     estimated scf accuracy    <       0.00000016 Ry

     iteration # 40     ecut=    45.00 Ry     beta= 0.70
     Davidson diagonalization with overlap
     ethr =  8.11E-12,  avg # of iterations =  1.1

     negative rho (up, down):  1.408E-03 0.000E+00

     total cpu time spent up to now is     4307.7 secs

     total energy              =   -2034.19436834 Ry
     estimated scf accuracy    <       0.00000003 Ry

     iteration # 41     ecut=    45.00 Ry     beta= 0.70
     Davidson diagonalization with overlap
     ethr =  8.11E-12,  avg # of iterations =  1.1

     negative rho (up, down):  1.408E-03 0.000E+00

     total cpu time spent up to now is     4335.8 secs

     total energy              =   -2034.19436834 Ry
     estimated scf accuracy    <       0.00000003 Ry

     iteration # 42     ecut=    45.00 Ry     beta= 0.70
     Davidson diagonalization with overlap
     ethr =  8.11E-12,  avg # of iterations =  1.0

     negative rho (up, down):  1.408E-03 0.000E+00

     total cpu time spent up to now is     4363.1 secs

     total energy              =   -2034.19436834 Ry
     estimated scf accuracy    <       0.00000002 Ry

     iteration # 43     ecut=    45.00 Ry     beta= 0.70
     Davidson diagonalization with overlap
     ethr =  8.11E-12,  avg # of iterations =  1.0

     negative rho (up, down):  1.408E-03 0.000E+00

     total cpu time spent up to now is     4390.5 secs

     End of self-consistent calculation

          k = 0.0000 0.0000 0.0000 (  6457 PWs)   bands (ev):

   -80.4909 -80.4796 -80.4655 -80.4274 -80.3835 -80.3737 -80.0835 -80.0590
   -46.5751 -46.5751 -46.5669 -46.5532 -46.5401 -46.5401 -46.5312 -46.5062
   -46.5062 -46.4679 -46.4362 -46.4362 -46.3865 -46.3555 -46.3555 -46.3243
   -46.3195 -46.3195 -46.1232 -46.1000 -46.0934 -46.0934 -46.0706 -46.0706
    -1.4915  -0.6986   0.5066   1.8292   2.7218   2.7314   2.7928   3.0830
     3.1986   3.3218   3.6419   4.3420   5.0509   5.0509   5.0643   5.0971
     5.0971   5.1202   5.2361   5.2361   5.3499   5.5201   5.5201   5.6945
     5.6995   5.9397   5.9397   6.1561   6.1780   6.1972   6.2078   6.4458
     6.4458   6.4540   6.6195   6.6224   6.8306   6.9618   6.9618   6.9982
     7.2494   7.2788   7.3306   7.3306   7.4177

          k = 0.0000 0.2500 0.0000 (  6508 PWs)   bands (ev):

   -80.4755 -80.4687 -80.4586 -80.4271 -80.3900 -80.3850 -80.0828 -80.0580
   -46.6297 -46.6221 -46.5880 -46.5828 -46.5367 -46.5350 -46.5176 -46.5128
   -46.4951 -46.4581 -46.4476 -46.4402 -46.3759 -46.3693 -46.3654 -46.3547
   -46.3257 -46.3113 -46.1174 -46.1136 -46.1010 -46.0954 -46.0919 -46.0767
    -0.2869   0.4207   1.4148   2.3494   2.9579   3.0853   3.2251   3.3617
     3.4514   3.7054   4.2275   4.4519   4.4582   4.7189   4.7450   4.7536
     4.9377   4.9938   5.0732   5.1397   5.2903   5.5205   5.5492   5.7554
     5.8108   6.0789   6.1114   6.1226   6.2615   6.2635   6.2855   6.4067
     6.4357   6.5097   6.5859   6.6351   6.7293   6.8066   6.8274   6.9454
     7.2522   7.3441   7.5090   7.5398   7.5639

          k = 0.0000-0.5000 0.0000 (  6560 PWs)   bands (ev):

   -80.4616 -80.4539 -80.4371 -80.4351 -80.4020 -80.3998 -80.0820 -80.0569
   -46.6731 -46.6703 -46.6186 -46.6137 -46.5600 -46.5565 -46.4857 -46.4745
   -46.4577 -46.4559 -46.4481 -46.4447 -46.4170 -46.4139 -46.3628 -46.3615
   -46.3174 -46.3168 -46.1325 -46.1130 -46.1117 -46.1083 -46.0907 -46.0825
     2.3134   2.3207   2.3377   2.3381   2.4575   2.4992   3.3460   3.3920
     4.0529   4.0596   4.3980   4.4114   4.5119   4.5297   4.7524   4.7798
     4.9193   4.9269   5.4128   5.4132   5.5481   5.5803   5.6088   5.6229
     5.9736   5.9761   6.2996   6.3159   6.4341   6.4375   6.4850   6.4889
     6.5169   6.5173   6.9894   6.9896   7.4058   7.4108   7.5038   7.5145
     7.6217   7.6253   7.6477   7.6532   7.7538

          k = 0.2500 0.0000 0.0000 (  6508 PWs)   bands (ev):

   -80.4755 -80.4687 -80.4586 -80.4271 -80.3900 -80.3850 -80.0828 -80.0580
   -46.6297 -46.6221 -46.5880 -46.5828 -46.5367 -46.5350 -46.5176 -46.5128
   -46.4951 -46.4581 -46.4476 -46.4402 -46.3759 -46.3693 -46.3654 -46.3547
   -46.3257 -46.3113 -46.1174 -46.1136 -46.1010 -46.0954 -46.0919 -46.0767
    -0.2869   0.4207   1.4148   2.3494   2.9579   3.0853   3.2251   3.3617
     3.4514   3.7054   4.2275   4.4519   4.4582   4.7189   4.7450   4.7536
     4.9377   4.9938   5.0732   5.1397   5.2903   5.5205   5.5492   5.7554
     5.8108   6.0789   6.1114   6.1226   6.2615   6.2635   6.2855   6.4067
     6.4357   6.5097   6.5859   6.6351   6.7293   6.8066   6.8274   6.9454
     7.2522   7.3441   7.5090   7.5398   7.5639

          k = 0.2500 0.2500 0.0000 (  6498 PWs)   bands (ev):

   -80.4668 -80.4604 -80.4523 -80.4264 -80.3933 -80.3911 -80.0813 -80.0563
   -46.6233 -46.6060 -46.6028 -46.5832 -46.5658 -46.5611 -46.5404 -46.5285
   -46.5152 -46.4843 -46.4581 -46.4138 -46.3694 -46.3681 -46.3601 -46.3456
   -46.3444 -46.3243 -46.1287 -46.1126 -46.1104 -46.1041 -46.0909 -46.0885
     0.7716   1.4508   2.3676   3.0952   3.3470   3.5557   3.7361   3.8332
     3.8717   3.9445   4.0406   4.0749   4.2155   4.2476   4.3273   4.3495
     4.4410   4.4929   4.5743   4.7824   4.7871   5.1208   5.7559   5.8134
     5.8422   5.9918   6.3370   6.3608   6.4645   6.4735   6.5099   6.5213
     6.5925   6.6050   6.6790   6.7780   6.7791   6.7874   6.8533   6.9240
     7.1149   7.4427   7.4529   8.1920   9.1592

          k = 0.2500-0.5000 0.0000 (  6510 PWs)   bands (ev):

   -80.4593 -80.4516 -80.4348 -80.4328 -80.3998 -80.3975 -80.0798 -80.0547
   -46.6287 -46.6279 -46.6194 -46.6178 -46.6153 -46.6072 -46.5260 -46.5125
   -46.4746 -46.4712 -46.4458 -46.4439 -46.3906 -46.3872 -46.3469 -46.3468
   -46.3398 -46.3395 -46.1323 -46.1320 -46.1116 -46.1069 -46.1065 -46.0854
     2.6252   2.6340   3.0253   3.0371   3.1698   3.1969   3.5833   3.6004
     3.9293   3.9324   4.1907   4.2001   4.2590   4.2834   4.4937   4.4991
     4.6315   4.6544   4.7282   4.7464   5.1621   5.1700   5.7996   5.8365
     6.2455   6.2476   6.3541   6.3874   6.4634   6.4669   6.5957   6.5964
     6.6854   6.6913   6.8070   6.8074   6.9000   6.9002   7.0890   7.0920
     8.0194   8.0249   8.7739   8.7749   9.6924

          k = 0.2500-0.2500 0.0000 (  6498 PWs)   bands (ev):

   -80.4668 -80.4604 -80.4523 -80.4264 -80.3933 -80.3911 -80.0813 -80.0563
   -46.6233 -46.6060 -46.6028 -46.5832 -46.5658 -46.5611 -46.5404 -46.5285
   -46.5152 -46.4843 -46.4581 -46.4138 -46.3694 -46.3681 -46.3601 -46.3456
   -46.3444 -46.3243 -46.1287 -46.1126 -46.1104 -46.1041 -46.0909 -46.0885
     0.7716   1.4508   2.3676   3.0952   3.3470   3.5557   3.7361   3.8332
     3.8717   3.9445   4.0406   4.0749   4.2155   4.2476   4.3273   4.3495
     4.4410   4.4929   4.5743   4.7824   4.7871   5.1208   5.7559   5.8134
     5.8422   5.9918   6.3370   6.3608   6.4645   6.4735   6.5099   6.5213
     6.5925   6.6050   6.6790   6.7780   6.7791   6.7874   6.8533   6.9240
     7.1149   7.4427   7.4529   8.1920   9.1592

          k =-0.5000 0.0000 0.0000 (  6560 PWs)   bands (ev):

   -80.4616 -80.4539 -80.4371 -80.4351 -80.4020 -80.3998 -80.0820 -80.0569
   -46.6731 -46.6703 -46.6186 -46.6137 -46.5600 -46.5565 -46.4857 -46.4745
   -46.4577 -46.4559 -46.4481 -46.4447 -46.4170 -46.4139 -46.3628 -46.3615
   -46.3174 -46.3168 -46.1325 -46.1130 -46.1117 -46.1083 -46.0907 -46.0825
     2.3134   2.3207   2.3377   2.3381   2.4575   2.4992   3.3460   3.3920
     4.0529   4.0596   4.3980   4.4114   4.5119   4.5297   4.7524   4.7798
     4.9193   4.9269   5.4128   5.4132   5.5481   5.5803   5.6088   5.6229
     5.9736   5.9761   6.2996   6.3159   6.4341   6.4375   6.4850   6.4889
     6.5169   6.5173   6.9894   6.9896   7.4058   7.4108   7.5038   7.5145
     7.6217   7.6253   7.6477   7.6532   7.7538

          k =-0.5000 0.2500 0.0000 (  6510 PWs)   bands (ev):

   -80.4593 -80.4516 -80.4348 -80.4328 -80.3998 -80.3975 -80.0798 -80.0547
   -46.6287 -46.6279 -46.6194 -46.6178 -46.6153 -46.6072 -46.5260 -46.5125
   -46.4746 -46.4712 -46.4458 -46.4439 -46.3906 -46.3872 -46.3469 -46.3468
   -46.3398 -46.3395 -46.1323 -46.1321 -46.1116 -46.1069 -46.1065 -46.0854
     2.6252   2.6340   3.0253   3.0371   3.1698   3.1969   3.5833   3.6004
     3.9293   3.9324   4.1907   4.2001   4.2590   4.2834   4.4937   4.4991
     4.6315   4.6544   4.7282   4.7464   5.1621   5.1700   5.7996   5.8365
     6.2455   6.2476   6.3541   6.3874   6.4634   6.4669   6.5957   6.5964
     6.6854   6.6913   6.8070   6.8074   6.9000   6.9002   7.0890   7.0920
     8.0194   8.0249   8.7739   8.7749   9.6924

          k =-0.5000-0.5000 0.0000 (  6576 PWs)   bands (ev):

   -80.4572 -80.4495 -80.4327 -80.4306 -80.3976 -80.3953 -80.0777 -80.0526
   -46.6796 -46.6796 -46.6312 -46.6312 -46.5762 -46.5762 -46.4834 -46.4834
   -46.4794 -46.4768 -46.4561 -46.4541 -46.4367 -46.4364 -46.3796 -46.3796
   -46.3279 -46.3279 -46.1318 -46.1318 -46.1307 -46.1114 -46.1114 -46.1056
     2.4573   2.4666   2.9723   2.9880   3.6146   3.6205   3.8616   3.8616
     3.8773   3.8773   3.9445   3.9445   4.1336   4.1336   4.3113   4.3354
     4.5040   4.5040   5.0657   5.0657   5.8904   5.8904   6.5374   6.5486
     6.6125   6.6255   6.7016   6.7101   6.7246   6.7377   6.7527   6.7572
     6.7663   6.7752   6.7879   6.7898   7.0890   7.1161   7.1578   7.1578
     8.1284   8.1284   9.8038   9.8038  11.5859

     the Fermi energy is     6.5852 ev

!    total energy              =   -2034.19436834 Ry
     estimated scf accuracy    <          6.8E-09 Ry
     smearing contrib. (-TS)   =      -0.02057131 Ry
     internal energy E=F+TS    =   -2034.17379702 Ry

     The total energy is F=E-TS. E is the sum of the following terms:
     one-electron contribution =  -13736.12360704 Ry
     hartree contribution      =    6891.77148529 Ry
     xc contribution           =    -277.08399283 Ry
     ewald contribution        =    5087.26231755 Ry

     convergence has been achieved in  43 iterations

     negative rho (up, down):  1.408E-03 0.000E+00

     Forces acting on atoms (cartesian axes, Ry/au):

     atom    1 type  1   force =     0.00000000    0.00000001   -0.03237596
     atom    2 type  1   force =    -0.00000000    0.00000000    0.06454026
     atom    3 type  1   force =    -0.00000000    0.00000000    0.01199281
     atom    4 type  1   force =     0.00000000   -0.00000000    0.00325262
     atom    5 type  1   force =    -0.00000000   -0.00000000   -0.00380221
     atom    6 type  1   force =    -0.00000000   -0.00000000   -0.01171012
     atom    7 type  1   force =     0.00000001    0.00000000   -0.06284880
     atom    8 type  1   force =    -0.00000000   -0.00000001    0.03095139

     Total force =     0.062849     Total SCF correction =     0.000117
     Energy error            =      4.1E-03
     Gradient error          =      6.3E-02

     number of scf cycles    =   2
     number of bfgs steps    =   1

     energy   old            =   -2034.1902403354 Ry
     energy   new            =   -2034.1943683380 Ry

     CASE: energy  _new < energy  _old


     WARNING: bfgs curvature condition failed, Theta= 0.822
     new trust radius        =       0.0709956772 bohr
     new conv_thr            =       0.0000000041 Ry


ATOMIC_POSITIONS (angstrom)
Fe            0.0000000000        0.0000000000        2.1525000000    0   0   0
Fe            1.4350000000        1.4350000000        0.7175000000    0   0   0
Fe            0.0000000000        0.0000000000        5.0225000000    0   0   0
Fe            1.4350000000        1.4350000000        3.5875000000    0   0   0
Fe            0.0000000000        0.0000000000        7.8925000000    0   0   0
Fe            1.4350000000        1.4350000000        6.4575000000    0   0   0
Fe           -0.0000000029        0.0000000005       10.6907768015
Fe            1.4350000000        1.4350000000        9.3275000000    0   0   0



     Writing output data file ./tmp/fe_clean_fe_surface.save/
     NEW-OLD atomic charge density approx. for the potential

     Check: negative core charge=   -0.000078

     negative rho (up, down):  1.406E-03 0.000E+00

     total cpu time spent up to now is     4402.1 secs

     Self-consistent Calculation

     iteration #  1     ecut=    45.00 Ry     beta= 0.70
     Davidson diagonalization with overlap
     ethr =  1.00E-06,  avg # of iterations =  9.6

     negative rho (up, down):  1.385E-03 0.000E+00

     total cpu time spent up to now is     4494.3 secs

     total energy              =   -2034.16642116 Ry
     estimated scf accuracy    <       0.03721530 Ry

     iteration #  2     ecut=    45.00 Ry     beta= 0.70
     Davidson diagonalization with overlap
     ethr =  2.91E-05,  avg # of iterations =  9.2

     negative rho (up, down):  1.796E-02 0.000E+00

     total cpu time spent up to now is     4558.1 secs

     total energy              =   -2033.58197790 Ry
     estimated scf accuracy    <      89.64405130 Ry

     iteration #  3     ecut=    45.00 Ry     beta= 0.70
     Davidson diagonalization with overlap
     ethr =  2.91E-05,  avg # of iterations =  9.8

     negative rho (up, down):  1.866E-02 0.000E+00

     total cpu time spent up to now is     4616.5 secs

     total energy              =   -2033.64650205 Ry
     estimated scf accuracy    <     182.36708173 Ry

     iteration #  4     ecut=    45.00 Ry     beta= 0.70
     Davidson diagonalization with overlap
     ethr =  2.91E-05,  avg # of iterations =  8.2

     negative rho (up, down):  1.705E-02 0.000E+00

     total cpu time spent up to now is     4660.0 secs

     total energy              =   -2033.96412909 Ry
     estimated scf accuracy    <      43.61046851 Ry

     iteration #  5     ecut=    45.00 Ry     beta= 0.70
     Davidson diagonalization with overlap
     ethr =  2.91E-05,  avg # of iterations =  5.7

     negative rho (up, down):  8.122E-03 0.000E+00

     total cpu time spent up to now is     4712.8 secs

     total energy              =   -2034.16443037 Ry
     estimated scf accuracy    <       3.12820149 Ry

     iteration #  6     ecut=    45.00 Ry     beta= 0.70
     Davidson diagonalization with overlap
     ethr =  2.91E-05,  avg # of iterations =  4.0

     negative rho (up, down):  3.404E-03 0.000E+00

     total cpu time spent up to now is     4750.6 secs

     total energy              =   -2034.19593265 Ry
     estimated scf accuracy    <       0.24967451 Ry

     iteration #  7     ecut=    45.00 Ry     beta= 0.70
     Davidson diagonalization with overlap
     ethr =  2.91E-05,  avg # of iterations =  1.0

     negative rho (up, down):  2.410E-03 0.000E+00

     total cpu time spent up to now is     4781.7 secs

     total energy              =   -2034.19732943 Ry
     estimated scf accuracy    <       0.10294842 Ry

     iteration #  8     ecut=    45.00 Ry     beta= 0.70
     Davidson diagonalization with overlap
     ethr =  2.91E-05,  avg # of iterations =  1.4

     negative rho (up, down):  2.004E-03 0.000E+00

     total cpu time spent up to now is     4812.9 secs

     total energy              =   -2034.19724947 Ry
     estimated scf accuracy    <       0.05552598 Ry

     iteration #  9     ecut=    45.00 Ry     beta= 0.70
     Davidson diagonalization with overlap
     ethr =  2.91E-05,  avg # of iterations =  1.0

     negative rho (up, down):  1.566E-03 0.000E+00

     total cpu time spent up to now is     4844.5 secs

     total energy              =   -2034.19839157 Ry
     estimated scf accuracy    <       0.00311006 Ry

     iteration # 10     ecut=    45.00 Ry     beta= 0.70
     Davidson diagonalization with overlap
     ethr =  2.43E-06,  avg # of iterations =  4.4

     negative rho (up, down):  1.460E-03 0.000E+00

     total cpu time spent up to now is     4884.8 secs

     total energy              =   -2034.19832222 Ry
     estimated scf accuracy    <       0.02055380 Ry

     iteration # 11     ecut=    45.00 Ry     beta= 0.70
     Davidson diagonalization with overlap
     ethr =  2.43E-06,  avg # of iterations =  2.1

     negative rho (up, down):  1.447E-03 0.000E+00

     total cpu time spent up to now is     4922.3 secs

     total energy              =   -2034.19858522 Ry
     estimated scf accuracy    <       0.00622653 Ry

     iteration # 12     ecut=    45.00 Ry     beta= 0.70
     Davidson diagonalization with overlap
     ethr =  2.43E-06,  avg # of iterations =  1.1

     negative rho (up, down):  1.413E-03 0.000E+00

     total cpu time spent up to now is     4952.4 secs

     total energy              =   -2034.19867525 Ry
     estimated scf accuracy    <       0.00120573 Ry

     iteration # 13     ecut=    45.00 Ry     beta= 0.70
     Davidson diagonalization with overlap
     ethr =  9.42E-07,  avg # of iterations =  1.0

     negative rho (up, down):  1.403E-03 0.000E+00

     total cpu time spent up to now is     4980.6 secs

     total energy              =   -2034.19868797 Ry
     estimated scf accuracy    <       0.00020165 Ry

     iteration # 14     ecut=    45.00 Ry     beta= 0.70
     Davidson diagonalization with overlap
     ethr =  1.58E-07,  avg # of iterations =  2.5

     negative rho (up, down):  1.405E-03 0.000E+00

     total cpu time spent up to now is     5014.9 secs

     total energy              =   -2034.19868580 Ry
     estimated scf accuracy    <       0.00039710 Ry

     iteration # 15     ecut=    45.00 Ry     beta= 0.70
     Davidson diagonalization with overlap
     ethr =  1.58E-07,  avg # of iterations =  3.9

     negative rho (up, down):  1.485E-03 0.000E+00

     total cpu time spent up to now is     5051.1 secs

     total energy              =   -2034.19846065 Ry
     estimated scf accuracy    <       0.01936642 Ry

     iteration # 16     ecut=    45.00 Ry     beta= 0.70
     Davidson diagonalization with overlap
     ethr =  1.58E-07,  avg # of iterations =  2.9

     negative rho (up, down):  1.413E-03 0.000E+00

     total cpu time spent up to now is     5086.1 secs

     total energy              =   -2034.19867871 Ry
     estimated scf accuracy    <       0.00145496 Ry

     iteration # 17     ecut=    45.00 Ry     beta= 0.70
     Davidson diagonalization with overlap
     ethr =  1.58E-07,  avg # of iterations =  1.0

     negative rho (up, down):  1.404E-03 0.000E+00

     total cpu time spent up to now is     5115.2 secs

     total energy              =   -2034.19869518 Ry
     estimated scf accuracy    <       0.00007314 Ry

     iteration # 18     ecut=    45.00 Ry     beta= 0.70
     Davidson diagonalization with overlap
     ethr =  5.71E-08,  avg # of iterations =  1.5

     negative rho (up, down):  1.403E-03 0.000E+00

     total cpu time spent up to now is     5145.8 secs

     total energy              =   -2034.19869596 Ry
     estimated scf accuracy    <       0.00005665 Ry

     iteration # 19     ecut=    45.00 Ry     beta= 0.70
     Davidson diagonalization with overlap
     ethr =  4.43E-08,  avg # of iterations =  1.0

     negative rho (up, down):  1.404E-03 0.000E+00

     total cpu time spent up to now is     5175.1 secs

     total energy              =   -2034.19869688 Ry
     estimated scf accuracy    <       0.00004940 Ry

     iteration # 20     ecut=    45.00 Ry     beta= 0.70
     Davidson diagonalization with overlap
     ethr =  3.86E-08,  avg # of iterations =  1.2

     negative rho (up, down):  1.404E-03 0.000E+00

     total cpu time spent up to now is     5205.6 secs

     total energy              =   -2034.19869587 Ry
     estimated scf accuracy    <       0.00005310 Ry

     iteration # 21     ecut=    45.00 Ry     beta= 0.70
     Davidson diagonalization with overlap
     ethr =  3.86E-08,  avg # of iterations =  1.0

     negative rho (up, down):  1.404E-03 0.000E+00

     total cpu time spent up to now is     5238.0 secs

     total energy              =   -2034.19869723 Ry
     estimated scf accuracy    <       0.00001695 Ry

     iteration # 22     ecut=    45.00 Ry     beta= 0.70
     Davidson diagonalization with overlap
     ethr =  1.32E-08,  avg # of iterations =  1.0

     negative rho (up, down):  1.404E-03 0.000E+00

     total cpu time spent up to now is     5272.6 secs

     total energy              =   -2034.19869747 Ry
     estimated scf accuracy    <       0.00000843 Ry

     iteration # 23     ecut=    45.00 Ry     beta= 0.70
     Davidson diagonalization with overlap
     ethr =  6.59E-09,  avg # of iterations =  1.2

     negative rho (up, down):  1.405E-03 0.000E+00

     total cpu time spent up to now is     5303.5 secs

     total energy              =   -2034.19869754 Ry
     estimated scf accuracy    <       0.00000346 Ry

     iteration # 24     ecut=    45.00 Ry     beta= 0.70
     Davidson diagonalization with overlap
     ethr =  2.70E-09,  avg # of iterations =  1.4

     negative rho (up, down):  1.405E-03 0.000E+00

     total cpu time spent up to now is     5333.5 secs

     total energy              =   -2034.19869757 Ry
     estimated scf accuracy    <       0.00000595 Ry

     iteration # 25     ecut=    45.00 Ry     beta= 0.70
     Davidson diagonalization with overlap
     ethr =  2.70E-09,  avg # of iterations =  1.1

     negative rho (up, down):  1.405E-03 0.000E+00

     total cpu time spent up to now is     5362.9 secs

     total energy              =   -2034.19869752 Ry
     estimated scf accuracy    <       0.00000814 Ry

     iteration # 26     ecut=    45.00 Ry     beta= 0.70
     Davidson diagonalization with overlap
     ethr =  2.70E-09,  avg # of iterations =  1.0

     negative rho (up, down):  1.405E-03 0.000E+00

     total cpu time spent up to now is     5390.5 secs

     total energy              =   -2034.19869760 Ry
     estimated scf accuracy    <       0.00000141 Ry

     iteration # 27     ecut=    45.00 Ry     beta= 0.70
     Davidson diagonalization with overlap
     ethr =  1.10E-09,  avg # of iterations =  1.2

     negative rho (up, down):  1.405E-03 0.000E+00

     total cpu time spent up to now is     5419.0 secs

     total energy              =   -2034.19869761 Ry
     estimated scf accuracy    <       0.00000047 Ry

     iteration # 28     ecut=    45.00 Ry     beta= 0.70
     Davidson diagonalization with overlap
     ethr =  3.66E-10,  avg # of iterations =  2.1

     negative rho (up, down):  1.405E-03 0.000E+00

     total cpu time spent up to now is     5449.0 secs

     total energy              =   -2034.19869762 Ry
     estimated scf accuracy    <       0.00000019 Ry

     iteration # 29     ecut=    45.00 Ry     beta= 0.70
     Davidson diagonalization with overlap
     ethr =  1.49E-10,  avg # of iterations =  2.4

     negative rho (up, down):  1.405E-03 0.000E+00

     total cpu time spent up to now is     5479.2 secs

     total energy              =   -2034.19869760 Ry
     estimated scf accuracy    <       0.00000190 Ry

     iteration # 30     ecut=    45.00 Ry     beta= 0.70
     Davidson diagonalization with overlap
     ethr =  1.49E-10,  avg # of iterations =  1.0

     negative rho (up, down):  1.405E-03 0.000E+00

     total cpu time spent up to now is     5506.7 secs

     total energy              =   -2034.19869762 Ry
     estimated scf accuracy    <       0.00000027 Ry

     iteration # 31     ecut=    45.00 Ry     beta= 0.70
     Davidson diagonalization with overlap
     ethr =  1.49E-10,  avg # of iterations =  1.0

     negative rho (up, down):  1.405E-03 0.000E+00

     total cpu time spent up to now is     5534.3 secs

     total energy              =   -2034.19869762 Ry
     estimated scf accuracy    <       0.00000069 Ry

     iteration # 32     ecut=    45.00 Ry     beta= 0.70
     Davidson diagonalization with overlap
     ethr =  1.49E-10,  avg # of iterations =  1.0

     negative rho (up, down):  1.405E-03 0.000E+00

     total cpu time spent up to now is     5561.4 secs

     total energy              =   -2034.19869762 Ry
     estimated scf accuracy    <       0.00000017 Ry

     iteration # 33     ecut=    45.00 Ry     beta= 0.70
     Davidson diagonalization with overlap
     ethr =  1.34E-10,  avg # of iterations =  1.0

     negative rho (up, down):  1.405E-03 0.000E+00

     total cpu time spent up to now is     5588.3 secs

     total energy              =   -2034.19869762 Ry
     estimated scf accuracy    <       0.00000022 Ry

     iteration # 34     ecut=    45.00 Ry     beta= 0.70
     Davidson diagonalization with overlap
     ethr =  1.34E-10,  avg # of iterations =  1.0

     negative rho (up, down):  1.405E-03 0.000E+00

     total cpu time spent up to now is     5615.9 secs

     total energy              =   -2034.19869762 Ry
     estimated scf accuracy    <       0.00000013 Ry

     iteration # 35     ecut=    45.00 Ry     beta= 0.70
     Davidson diagonalization with overlap
     ethr =  1.02E-10,  avg # of iterations =  1.0

     negative rho (up, down):  1.405E-03 0.000E+00

     total cpu time spent up to now is     5643.6 secs

     total energy              =   -2034.19869762 Ry
     estimated scf accuracy    <       0.00000095 Ry

     iteration # 36     ecut=    45.00 Ry     beta= 0.70
     Davidson diagonalization with overlap
     ethr =  1.02E-10,  avg # of iterations =  1.0

     negative rho (up, down):  1.405E-03 0.000E+00

     total cpu time spent up to now is     5670.9 secs

     total energy              =   -2034.19869762 Ry
     estimated scf accuracy    <       0.00000073 Ry

     iteration # 37     ecut=    45.00 Ry     beta= 0.70
     Davidson diagonalization with overlap
     ethr =  1.02E-10,  avg # of iterations =  1.1

     negative rho (up, down):  1.405E-03 0.000E+00

     total cpu time spent up to now is     5698.7 secs

     total energy              =   -2034.19869763 Ry
     estimated scf accuracy    <       0.00000009 Ry

     iteration # 38     ecut=    45.00 Ry     beta= 0.70
     Davidson diagonalization with overlap
     ethr =  6.81E-11,  avg # of iterations =  1.0

     negative rho (up, down):  1.405E-03 0.000E+00

     total cpu time spent up to now is     5726.2 secs

     total energy              =   -2034.19869763 Ry
     estimated scf accuracy    <       0.00000012 Ry

     iteration # 39     ecut=    45.00 Ry     beta= 0.70
     Davidson diagonalization with overlap
     ethr =  6.81E-11,  avg # of iterations =  1.0

     negative rho (up, down):  1.405E-03 0.000E+00

     total cpu time spent up to now is     5753.8 secs

     total energy              =   -2034.19869763 Ry
     estimated scf accuracy    <       0.00000008 Ry

     iteration # 40     ecut=    45.00 Ry     beta= 0.70
     Davidson diagonalization with overlap
     ethr =  6.41E-11,  avg # of iterations =  1.0

     negative rho (up, down):  1.405E-03 0.000E+00

     total cpu time spent up to now is     5781.6 secs

     total energy              =   -2034.19869763 Ry
     estimated scf accuracy    <       0.00000002 Ry

     iteration # 41     ecut=    45.00 Ry     beta= 0.70
     Davidson diagonalization with overlap
     ethr =  1.25E-11,  avg # of iterations =  1.6

     negative rho (up, down):  1.405E-03 0.000E+00

     total cpu time spent up to now is     5812.1 secs

     total energy              =   -2034.19869762 Ry
     estimated scf accuracy    <       0.00000049 Ry

     iteration # 42     ecut=    45.00 Ry     beta= 0.70
     Davidson diagonalization with overlap
     ethr =  1.25E-11,  avg # of iterations =  2.8

     negative rho (up, down):  1.405E-03 0.000E+00

     total cpu time spent up to now is     5846.1 secs

     total energy              =   -2034.19869762 Ry
     estimated scf accuracy    <       0.00000042 Ry

     iteration # 43     ecut=    45.00 Ry     beta= 0.70
     Davidson diagonalization with overlap
     ethr =  1.25E-11,  avg # of iterations =  2.8

     negative rho (up, down):  1.405E-03 0.000E+00

     total cpu time spent up to now is     5880.7 secs

     total energy              =   -2034.19869762 Ry
     estimated scf accuracy    <       0.00000085 Ry

     iteration # 44     ecut=    45.00 Ry     beta= 0.70
     Davidson diagonalization with overlap
     ethr =  1.25E-11,  avg # of iterations =  2.8

     negative rho (up, down):  1.405E-03 0.000E+00

     total cpu time spent up to now is     5913.5 secs

     total energy              =   -2034.19869763 Ry
     estimated scf accuracy    <       0.00000002 Ry

     iteration # 45     ecut=    45.00 Ry     beta= 0.70
     Davidson diagonalization with overlap
     ethr =  1.25E-11,  avg # of iterations =  1.1

     negative rho (up, down):  1.405E-03 0.000E+00

     total cpu time spent up to now is     5942.0 secs

     total energy              =   -2034.19869763 Ry
     estimated scf accuracy    <       0.00000013 Ry

     iteration # 46     ecut=    45.00 Ry     beta= 0.70
     Davidson diagonalization with overlap
     ethr =  1.25E-11,  avg # of iterations =  1.0

     negative rho (up, down):  1.405E-03 0.000E+00

     total cpu time spent up to now is     5971.5 secs

     total energy              =   -2034.19869763 Ry
     estimated scf accuracy    <       0.00000013 Ry

     iteration # 47     ecut=    45.00 Ry     beta= 0.70
     Davidson diagonalization with overlap
     ethr =  1.25E-11,  avg # of iterations =  2.1

     negative rho (up, down):  1.405E-03 0.000E+00

     total cpu time spent up to now is     6005.6 secs

     total energy              =   -2034.19869763 Ry
     estimated scf accuracy    <       0.00000005 Ry

     iteration # 48     ecut=    45.00 Ry     beta= 0.70
     Davidson diagonalization with overlap
     ethr =  1.25E-11,  avg # of iterations =  1.0

     negative rho (up, down):  1.405E-03 0.000E+00

     total cpu time spent up to now is     6033.2 secs

     total energy              =   -2034.19869763 Ry
     estimated scf accuracy    <       0.00000002 Ry

     iteration # 49     ecut=    45.00 Ry     beta= 0.70
     Davidson diagonalization with overlap
     ethr =  1.25E-11,  avg # of iterations =  1.4

     negative rho (up, down):  1.405E-03 0.000E+00

     total cpu time spent up to now is     6062.6 secs

     total energy              =   -2034.19869762 Ry
     estimated scf accuracy    <       0.00000023 Ry

     iteration # 50     ecut=    45.00 Ry     beta= 0.70
     Davidson diagonalization with overlap
     ethr =  1.25E-11,  avg # of iterations =  1.0

     negative rho (up, down):  1.405E-03 0.000E+00

     total cpu time spent up to now is     6090.2 secs

     total energy              =   -2034.19869763 Ry
     estimated scf accuracy    <       0.00000012 Ry

     iteration # 51     ecut=    45.00 Ry     beta= 0.70
     Davidson diagonalization with overlap
     ethr =  1.25E-11,  avg # of iterations =  2.0

     negative rho (up, down):  1.405E-03 0.000E+00

     total cpu time spent up to now is     6123.6 secs

     total energy              =   -2034.19869762 Ry
     estimated scf accuracy    <       0.00000079 Ry

     iteration # 52     ecut=    45.00 Ry     beta= 0.70
     Davidson diagonalization with overlap
     ethr =  1.25E-11,  avg # of iterations =  2.0

     negative rho (up, down):  1.405E-03 0.000E+00

     total cpu time spent up to now is     6159.5 secs

     total energy              =   -2034.19869763 Ry
     estimated scf accuracy    <       0.00000007 Ry

     iteration # 53     ecut=    45.00 Ry     beta= 0.70
     Davidson diagonalization with overlap
     ethr =  1.25E-11,  avg # of iterations =  1.0

     negative rho (up, down):  1.405E-03 0.000E+00

     total cpu time spent up to now is     6188.8 secs

     total energy              =   -2034.19869763 Ry
     estimated scf accuracy    <       0.00000005 Ry

     iteration # 54     ecut=    45.00 Ry     beta= 0.70
     Davidson diagonalization with overlap
     ethr =  1.25E-11,  avg # of iterations =  1.0

     negative rho (up, down):  1.405E-03 0.000E+00

     total cpu time spent up to now is     6217.6 secs

     total energy              =   -2034.19869763 Ry
     estimated scf accuracy    <       0.00000003 Ry

     iteration # 55     ecut=    45.00 Ry     beta= 0.70
     Davidson diagonalization with overlap
     ethr =  1.25E-11,  avg # of iterations =  2.1

     negative rho (up, down):  1.405E-03 0.000E+00

     total cpu time spent up to now is     6252.3 secs

     total energy              =   -2034.19869762 Ry
     estimated scf accuracy    <       0.00000086 Ry

     iteration # 56     ecut=    45.00 Ry     beta= 0.70
     Davidson diagonalization with overlap
     ethr =  1.25E-11,  avg # of iterations =  1.3

     negative rho (up, down):  1.405E-03 0.000E+00

     total cpu time spent up to now is     6283.1 secs

     total energy              =   -2034.19869763 Ry
     estimated scf accuracy    <       0.00000033 Ry

     iteration # 57     ecut=    45.00 Ry     beta= 0.70
     Davidson diagonalization with overlap
     ethr =  1.25E-11,  avg # of iterations =  2.2

     negative rho (up, down):  1.405E-03 0.000E+00

     total cpu time spent up to now is     6316.8 secs

     total energy              =   -2034.19869763 Ry
     estimated scf accuracy    <       0.00000007 Ry

     iteration # 58     ecut=    45.00 Ry     beta= 0.70
     Davidson diagonalization with overlap
     ethr =  1.25E-11,  avg # of iterations =  1.1

     negative rho (up, down):  1.405E-03 0.000E+00

     total cpu time spent up to now is     6347.9 secs

     total energy              =   -2034.19869763 Ry
     estimated scf accuracy    <       0.00000004 Ry

     iteration # 59     ecut=    45.00 Ry     beta= 0.70
     Davidson diagonalization with overlap
     ethr =  1.25E-11,  avg # of iterations =  1.1

     negative rho (up, down):  1.405E-03 0.000E+00

     total cpu time spent up to now is     6377.2 secs

     total energy              =   -2034.19869763 Ry
     estimated scf accuracy    <       0.00000006 Ry

     iteration # 60     ecut=    45.00 Ry     beta= 0.70
     Davidson diagonalization with overlap
     ethr =  1.25E-11,  avg # of iterations =  1.0

     negative rho (up, down):  1.405E-03 0.000E+00

     total cpu time spent up to now is     6407.2 secs

     total energy              =   -2034.19869763 Ry
     estimated scf accuracy    <       0.00000001 Ry

     iteration # 61     ecut=    45.00 Ry     beta= 0.70
     Davidson diagonalization with overlap
     ethr =  8.12E-12,  avg # of iterations =  1.0

     negative rho (up, down):  1.405E-03 0.000E+00

     total cpu time spent up to now is     6436.9 secs

     total energy              =   -2034.19869763 Ry
     estimated scf accuracy    <       0.00000014 Ry

     iteration # 62     ecut=    45.00 Ry     beta= 0.70
     Davidson diagonalization with overlap
     ethr =  8.12E-12,  avg # of iterations =  2.5

     negative rho (up, down):  1.405E-03 0.000E+00

     total cpu time spent up to now is     6472.3 secs

     total energy              =   -2034.19869763 Ry
     estimated scf accuracy    <       0.00000013 Ry

     iteration # 63     ecut=    45.00 Ry     beta= 0.70
     Davidson diagonalization with overlap
     ethr =  8.12E-12,  avg # of iterations =  2.8

     negative rho (up, down):  1.405E-03 0.000E+00

     total cpu time spent up to now is     6509.6 secs

     total energy              =   -2034.19869762 Ry
     estimated scf accuracy    <       0.00000085 Ry

     iteration # 64     ecut=    45.00 Ry     beta= 0.70
     Davidson diagonalization with overlap
     ethr =  8.12E-12,  avg # of iterations =  2.8

     negative rho (up, down):  1.405E-03 0.000E+00

     total cpu time spent up to now is     6544.5 secs

     total energy              =   -2034.19869763 Ry
     estimated scf accuracy    <          8.3E-09 Ry

     iteration # 65     ecut=    45.00 Ry     beta= 0.70
     Davidson diagonalization with overlap
     ethr =  6.48E-12,  avg # of iterations =  1.1

     negative rho (up, down):  1.405E-03 0.000E+00

     total cpu time spent up to now is     6574.3 secs

     total energy              =   -2034.19869763 Ry
     estimated scf accuracy    <       0.00000012 Ry

     iteration # 66     ecut=    45.00 Ry     beta= 0.70
     Davidson diagonalization with overlap
     ethr =  6.48E-12,  avg # of iterations =  1.0

     negative rho (up, down):  1.405E-03 0.000E+00

     total cpu time spent up to now is     6604.0 secs

     total energy              =   -2034.19869763 Ry
     estimated scf accuracy    <       0.00000005 Ry

     iteration # 67     ecut=    45.00 Ry     beta= 0.70
     Davidson diagonalization with overlap
     ethr =  6.48E-12,  avg # of iterations =  2.1

     negative rho (up, down):  1.405E-03 0.000E+00

     total cpu time spent up to now is     6638.6 secs

     total energy              =   -2034.19869763 Ry
     estimated scf accuracy    <       0.00000003 Ry

     iteration # 68     ecut=    45.00 Ry     beta= 0.70
     Davidson diagonalization with overlap
     ethr =  6.48E-12,  avg # of iterations =  1.0

     negative rho (up, down):  1.405E-03 0.000E+00

     total cpu time spent up to now is     6668.2 secs

     total energy              =   -2034.19869763 Ry
     estimated scf accuracy    <          8.2E-09 Ry

     iteration # 69     ecut=    45.00 Ry     beta= 0.70
     Davidson diagonalization with overlap
     ethr =  6.43E-12,  avg # of iterations =  1.3

     negative rho (up, down):  1.405E-03 0.000E+00

     total cpu time spent up to now is     6699.8 secs

     total energy              =   -2034.19869762 Ry
     estimated scf accuracy    <       0.00000022 Ry

     iteration # 70     ecut=    45.00 Ry     beta= 0.70
     Davidson diagonalization with overlap
     ethr =  6.43E-12,  avg # of iterations =  2.7

     negative rho (up, down):  1.405E-03 0.000E+00

     total cpu time spent up to now is     6734.1 secs

     total energy              =   -2034.19869762 Ry
     estimated scf accuracy    <       0.00000030 Ry

     iteration # 71     ecut=    45.00 Ry     beta= 0.70
     Davidson diagonalization with overlap
     ethr =  6.43E-12,  avg # of iterations =  2.5

     negative rho (up, down):  1.405E-03 0.000E+00

     total cpu time spent up to now is     6771.4 secs

     total energy              =   -2034.19869762 Ry
     estimated scf accuracy    <       0.00000102 Ry

     iteration # 72     ecut=    45.00 Ry     beta= 0.70
     Davidson diagonalization with overlap
     ethr =  6.43E-12,  avg # of iterations =  2.6

     negative rho (up, down):  1.405E-03 0.000E+00

     total cpu time spent up to now is     6806.9 secs

     total energy              =   -2034.19869763 Ry
     estimated scf accuracy    <       0.00000005 Ry

     iteration # 73     ecut=    45.00 Ry     beta= 0.70
     Davidson diagonalization with overlap
     ethr =  6.43E-12,  avg # of iterations =  1.1

     negative rho (up, down):  1.405E-03 0.000E+00

     total cpu time spent up to now is     6837.4 secs

     total energy              =   -2034.19869763 Ry
     estimated scf accuracy    <       0.00000002 Ry

     iteration # 74     ecut=    45.00 Ry     beta= 0.70
     Davidson diagonalization with overlap
     ethr =  6.43E-12,  avg # of iterations =  1.0

     negative rho (up, down):  1.405E-03 0.000E+00

     total cpu time spent up to now is     6866.8 secs

     total energy              =   -2034.19869763 Ry
     estimated scf accuracy    <          8.3E-09 Ry

     iteration # 75     ecut=    45.00 Ry     beta= 0.70
     Davidson diagonalization with overlap
     ethr =  6.43E-12,  avg # of iterations =  1.4

     negative rho (up, down):  1.405E-03 0.000E+00

     total cpu time spent up to now is     6897.9 secs

     total energy              =   -2034.19869763 Ry
     estimated scf accuracy    <       0.00000023 Ry

     iteration # 76     ecut=    45.00 Ry     beta= 0.70
     Davidson diagonalization with overlap
     ethr =  6.43E-12,  avg # of iterations =  1.0

     negative rho (up, down):  1.405E-03 0.000E+00

     total cpu time spent up to now is     6927.5 secs

     total energy              =   -2034.19869763 Ry
     estimated scf accuracy    <       0.00000004 Ry

     iteration # 77     ecut=    45.00 Ry     beta= 0.70
     Davidson diagonalization with overlap
     ethr =  6.43E-12,  avg # of iterations =  2.1

     negative rho (up, down):  1.405E-03 0.000E+00

     total cpu time spent up to now is     6962.5 secs

     total energy              =   -2034.19869763 Ry
     estimated scf accuracy    <       0.00000002 Ry

     iteration # 78     ecut=    45.00 Ry     beta= 0.70
     Davidson diagonalization with overlap
     ethr =  6.43E-12,  avg # of iterations =  1.0

     negative rho (up, down):  1.405E-03 0.000E+00

     total cpu time spent up to now is     6992.2 secs

     total energy              =   -2034.19869763 Ry
     estimated scf accuracy    <       0.00000001 Ry

     iteration # 79     ecut=    45.00 Ry     beta= 0.70
     Davidson diagonalization with overlap
     ethr =  6.43E-12,  avg # of iterations =  1.1

     negative rho (up, down):  1.405E-03 0.000E+00

     total cpu time spent up to now is     7022.5 secs

     total energy              =   -2034.19869763 Ry
     estimated scf accuracy    <       0.00000004 Ry

     iteration # 80     ecut=    45.00 Ry     beta= 0.70
     Davidson diagonalization with overlap
     ethr =  6.43E-12,  avg # of iterations =  1.0

     negative rho (up, down):  1.405E-03 0.000E+00

     total cpu time spent up to now is     7052.4 secs

     total energy              =   -2034.19869763 Ry
     estimated scf accuracy    <          5.9E-09 Ry

     iteration # 81     ecut=    45.00 Ry     beta= 0.70
     Davidson diagonalization with overlap
     ethr =  4.58E-12,  avg # of iterations =  1.0

     negative rho (up, down):  1.405E-03 0.000E+00

     total cpu time spent up to now is     7081.3 secs

     total energy              =   -2034.19869763 Ry
     estimated scf accuracy    <       0.00000002 Ry

     iteration # 82     ecut=    45.00 Ry     beta= 0.70
     Davidson diagonalization with overlap
     ethr =  4.58E-12,  avg # of iterations =  1.0

     negative rho (up, down):  1.405E-03 0.000E+00

     total cpu time spent up to now is     7110.5 secs

     total energy              =   -2034.19869763 Ry
     estimated scf accuracy    <       0.00000002 Ry

     iteration # 83     ecut=    45.00 Ry     beta= 0.70
     Davidson diagonalization with overlap
     ethr =  4.58E-12,  avg # of iterations =  2.7

     negative rho (up, down):  1.405E-03 0.000E+00

     total cpu time spent up to now is     7146.4 secs

     total energy              =   -2034.19869762 Ry
     estimated scf accuracy    <       0.00000055 Ry

     iteration # 84     ecut=    45.00 Ry     beta= 0.70
     Davidson diagonalization with overlap
     ethr =  4.58E-12,  avg # of iterations =  2.1

     negative rho (up, down):  1.405E-03 0.000E+00

     total cpu time spent up to now is     7178.2 secs

     total energy              =   -2034.19869763 Ry
     estimated scf accuracy    <       0.00000001 Ry

     iteration # 85     ecut=    45.00 Ry     beta= 0.70
     Davidson diagonalization with overlap
     ethr =  4.58E-12,  avg # of iterations =  1.1

     negative rho (up, down):  1.405E-03 0.000E+00

     total cpu time spent up to now is     7207.6 secs

     total energy              =   -2034.19869763 Ry
     estimated scf accuracy    <       0.00000004 Ry

     iteration # 86     ecut=    45.00 Ry     beta= 0.70
     Davidson diagonalization with overlap
     ethr =  4.58E-12,  avg # of iterations =  1.0

     negative rho (up, down):  1.405E-03 0.000E+00

     total cpu time spent up to now is     7236.7 secs

     total energy              =   -2034.19869763 Ry
     estimated scf accuracy    <          9.8E-09 Ry

     iteration # 87     ecut=    45.00 Ry     beta= 0.70
     Davidson diagonalization with overlap
     ethr =  4.58E-12,  avg # of iterations =  1.1

     negative rho (up, down):  1.405E-03 0.000E+00

     total cpu time spent up to now is     7266.0 secs

     total energy              =   -2034.19869763 Ry
     estimated scf accuracy    <          4.4E-09 Ry

     iteration # 88     ecut=    45.00 Ry     beta= 0.70
     Davidson diagonalization with overlap
     ethr =  3.43E-12,  avg # of iterations =  1.0

     negative rho (up, down):  1.405E-03 0.000E+00

     total cpu time spent up to now is     7295.1 secs

     End of self-consistent calculation

          k = 0.0000 0.0000 0.0000 (  6457 PWs)   bands (ev):

   -80.4912 -80.4795 -80.4635 -80.4239 -80.3797 -80.3697 -80.1063 -80.0550
   -46.5740 -46.5740 -46.5638 -46.5512 -46.5430 -46.5430 -46.5296 -46.5065
   -46.5065 -46.4664 -46.4342 -46.4342 -46.3853 -46.3524 -46.3524 -46.3217
   -46.3159 -46.3159 -46.1433 -46.1145 -46.1145 -46.0965 -46.0664 -46.0664
    -1.4953  -0.7113   0.4966   1.8286   2.7146   2.7315   2.7964   3.0596
     3.1901   3.3201   3.6164   4.3278   5.0538   5.0538   5.0662   5.0978
     5.0978   5.1137   5.2337   5.2337   5.3288   5.5121   5.5121   5.6772
     5.7090   5.9272   5.9272   6.1425   6.1873   6.1958   6.2109   6.4363
     6.4363   6.4646   6.6176   6.6262   6.8336   6.9590   6.9590   7.0069
     7.2584   7.2929   7.3327   7.3327   7.4286

          k = 0.0000 0.2500 0.0000 (  6508 PWs)   bands (ev):

   -80.4790 -80.4665 -80.4559 -80.4234 -80.3861 -80.3809 -80.1060 -80.0540
   -46.6290 -46.6191 -46.5923 -46.5804 -46.5370 -46.5352 -46.5199 -46.5119
   -46.4944 -46.4570 -46.4458 -46.4374 -46.3723 -46.3661 -46.3642 -46.3508
   -46.3231 -46.3075 -46.1367 -46.1333 -46.1241 -46.0917 -46.0878 -46.0724
    -0.2905   0.4082   1.4047   2.3461   2.9583   3.0828   3.2210   3.3167
     3.4442   3.6940   4.2161   4.4430   4.4584   4.7128   4.7195   4.7475
     4.9385   4.9942   5.0734   5.1163   5.2770   5.4969   5.5525   5.7445
     5.8001   6.0824   6.1159   6.1291   6.2594   6.2716   6.2817   6.4051
     6.4513   6.5090   6.5914   6.6532   6.7368   6.8196   6.8379   6.9517
     7.2557   7.3574   7.5129   7.5504   7.5742

          k = 0.0000-0.5000 0.0000 (  6560 PWs)   bands (ev):

   -80.4677 -80.4506 -80.4343 -80.4300 -80.3986 -80.3944 -80.1057 -80.0529
   -46.6740 -46.6667 -46.6222 -46.6118 -46.5610 -46.5549 -46.4959 -46.4711
   -46.4549 -46.4510 -46.4498 -46.4418 -46.4135 -46.4076 -46.3614 -46.3589
   -46.3141 -46.3134 -46.1501 -46.1335 -46.1309 -46.1084 -46.0871 -46.0783
     2.3021   2.3128   2.3409   2.3419   2.4186   2.5019   3.2981   3.3956
     4.0420   4.0586   4.3719   4.4000   4.4929   4.5322   4.7205   4.7803
     4.8983   4.9104   5.3971   5.4000   5.5142   5.5806   5.6126   5.6433
     5.9808   5.9868   6.2971   6.3296   6.4489   6.4572   6.4864   6.4930
     6.5224   6.5230   7.0003   7.0010   7.4159   7.4260   7.5100   7.5340
     7.6216   7.6295   7.6527   7.6651   7.7582

          k = 0.2500 0.0000 0.0000 (  6508 PWs)   bands (ev):

   -80.4790 -80.4665 -80.4559 -80.4234 -80.3861 -80.3809 -80.1060 -80.0540
   -46.6290 -46.6191 -46.5923 -46.5804 -46.5370 -46.5352 -46.5199 -46.5119
   -46.4944 -46.4570 -46.4458 -46.4374 -46.3723 -46.3661 -46.3642 -46.3508
   -46.3231 -46.3075 -46.1367 -46.1333 -46.1241 -46.0917 -46.0878 -46.0724
    -0.2905   0.4082   1.4047   2.3461   2.9583   3.0828   3.2210   3.3167
     3.4442   3.6940   4.2161   4.4430   4.4584   4.7128   4.7195   4.7475
     4.9385   4.9942   5.0734   5.1163   5.2770   5.4969   5.5525   5.7445
     5.8001   6.0824   6.1159   6.1291   6.2594   6.2716   6.2817   6.4051
     6.4513   6.5090   6.5914   6.6532   6.7368   6.8196   6.8379   6.9517
     7.2557   7.3574   7.5129   7.5504   7.5742

          k = 0.2500 0.2500 0.0000 (  6498 PWs)   bands (ev):

   -80.4720 -80.4571 -80.4491 -80.4225 -80.3896 -80.3865 -80.1047 -80.0523
   -46.6221 -46.6062 -46.5998 -46.5861 -46.5674 -46.5598 -46.5415 -46.5263
   -46.5173 -46.4826 -46.4567 -46.4109 -46.3676 -46.3653 -46.3578 -46.3420
   -46.3404 -46.3208 -46.1514 -46.1324 -46.1294 -46.1004 -46.0867 -46.0846
     0.7681   1.4384   2.3582   3.0922   3.3456   3.5546   3.7307   3.8199
     3.8608   3.9336   4.0213   4.0650   4.2072   4.2226   4.3262   4.3450
     4.4420   4.4851   4.5648   4.7659   4.7866   5.1078   5.7424   5.7841
     5.8460   5.9901   6.3282   6.3634   6.4671   6.4768   6.5134   6.5287
     6.5949   6.6094   6.6915   6.7829   6.7837   6.8022   6.8638   6.9373
     7.1177   7.4492   7.4558   8.2074   9.1777

          k = 0.2500-0.5000 0.0000 (  6510 PWs)   bands (ev):

   -80.4654 -80.4483 -80.4320 -80.4277 -80.3964 -80.3922 -80.1034 -80.0507
   -46.6317 -46.6239 -46.6238 -46.6171 -46.6121 -46.6038 -46.5388 -46.5091
   -46.4746 -46.4672 -46.4434 -46.4394 -46.3912 -46.3837 -46.3430 -46.3428
   -46.3367 -46.3356 -46.1561 -46.1504 -46.1252 -46.1074 -46.1030 -46.0815
     2.6160   2.6356   3.0141   3.0380   3.1419   3.2001   3.5668   3.6027
     3.9227   3.9301   4.1598   4.1880   4.2372   4.2813   4.4923   4.5009
     4.6051   4.6585   4.7167   4.7483   5.1656   5.1835   5.7616   5.8402
     6.2504   6.2512   6.3187   6.3917   6.4667   6.4705   6.5954   6.5982
     6.6889   6.7014   6.8110   6.8123   6.9027   6.9031   7.0879   7.0938
     8.0171   8.0285   8.7753   8.7774   9.7043

          k = 0.2500-0.2500 0.0000 (  6498 PWs)   bands (ev):

   -80.4720 -80.4571 -80.4491 -80.4225 -80.3896 -80.3865 -80.1047 -80.0523
   -46.6221 -46.6062 -46.5998 -46.5861 -46.5674 -46.5598 -46.5415 -46.5263
   -46.5173 -46.4826 -46.4567 -46.4109 -46.3676 -46.3653 -46.3578 -46.3420
   -46.3404 -46.3208 -46.1514 -46.1324 -46.1294 -46.1004 -46.0867 -46.0846
     0.7681   1.4384   2.3582   3.0922   3.3456   3.5546   3.7307   3.8199
     3.8608   3.9336   4.0213   4.0650   4.2072   4.2226   4.3262   4.3450
     4.4420   4.4851   4.5648   4.7659   4.7866   5.1078   5.7424   5.7841
     5.8460   5.9901   6.3282   6.3634   6.4671   6.4768   6.5134   6.5287
     6.5949   6.6094   6.6915   6.7829   6.7837   6.8022   6.8638   6.9373
     7.1177   7.4492   7.4558   8.2074   9.1777

          k =-0.5000 0.0000 0.0000 (  6560 PWs)   bands (ev):

   -80.4677 -80.4506 -80.4343 -80.4300 -80.3986 -80.3944 -80.1057 -80.0529
   -46.6740 -46.6667 -46.6222 -46.6118 -46.5610 -46.5549 -46.4959 -46.4711
   -46.4549 -46.4510 -46.4498 -46.4418 -46.4135 -46.4076 -46.3614 -46.3589
   -46.3141 -46.3134 -46.1501 -46.1335 -46.1309 -46.1084 -46.0871 -46.0783
     2.3021   2.3128   2.3409   2.3419   2.4186   2.5019   3.2981   3.3956
     4.0420   4.0586   4.3719   4.4000   4.4929   4.5322   4.7205   4.7803
     4.8983   4.9104   5.3971   5.4000   5.5142   5.5806   5.6126   5.6433
     5.9808   5.9868   6.2971   6.3296   6.4489   6.4572   6.4864   6.4930
     6.5224   6.5230   7.0003   7.0010   7.4159   7.4260   7.5100   7.5340
     7.6216   7.6295   7.6527   7.6651   7.7582

          k =-0.5000 0.2500 0.0000 (  6510 PWs)   bands (ev):

   -80.4654 -80.4483 -80.4320 -80.4277 -80.3964 -80.3922 -80.1034 -80.0507
   -46.6317 -46.6239 -46.6238 -46.6171 -46.6121 -46.6038 -46.5388 -46.5091
   -46.4746 -46.4672 -46.4434 -46.4394 -46.3912 -46.3837 -46.3430 -46.3428
   -46.3367 -46.3356 -46.1561 -46.1504 -46.1252 -46.1074 -46.1030 -46.0815
     2.6160   2.6356   3.0141   3.0380   3.1419   3.2001   3.5668   3.6027
     3.9227   3.9301   4.1598   4.1880   4.2372   4.2813   4.4923   4.5009
     4.6051   4.6585   4.7167   4.7483   5.1656   5.1835   5.7616   5.8402
     6.2504   6.2512   6.3187   6.3917   6.4667   6.4705   6.5954   6.5982
     6.6889   6.7014   6.8110   6.8123   6.9027   6.9031   7.0879   7.0938
     8.0171   8.0285   8.7753   8.7774   9.7044

          k =-0.5000-0.5000 0.0000 (  6576 PWs)   bands (ev):

   -80.4633 -80.4461 -80.4299 -80.4256 -80.3942 -80.3900 -80.1013 -80.0486
   -46.6782 -46.6782 -46.6343 -46.6343 -46.5780 -46.5780 -46.4824 -46.4824
   -46.4793 -46.4729 -46.4548 -46.4508 -46.4338 -46.4331 -46.3772 -46.3772
   -46.3245 -46.3245 -46.1535 -46.1498 -46.1498 -46.1072 -46.1072 -46.1020
     2.4481   2.4687   2.9543   2.9863   3.6083   3.6190   3.8626   3.8626
     3.8803   3.8803   3.9461   3.9461   4.1302   4.1302   4.2891   4.3393
     4.4894   4.4894   5.0492   5.0492   5.8815   5.8815   6.5152   6.5494
     6.6041   6.6231   6.6977   6.7109   6.7173   6.7416   6.7544   6.7615
     6.7651   6.7845   6.7915   6.7953   7.0613   7.1202   7.1526   7.1526
     8.1225   8.1225   9.7982   9.7982  11.5910

     the Fermi energy is     6.5889 ev

!    total energy              =   -2034.19869763 Ry
     estimated scf accuracy    <          1.0E-09 Ry
     smearing contrib. (-TS)   =      -0.01982060 Ry
     internal energy E=F+TS    =   -2034.17887703 Ry

     The total energy is F=E-TS. E is the sum of the following terms:
     one-electron contribution =  -13788.94298072 Ry
     hartree contribution      =    6918.17799355 Ry
     xc contribution           =    -277.10112614 Ry
     ewald contribution        =    5113.68723628 Ry

     convergence has been achieved in  88 iterations

     negative rho (up, down):  1.405E-03 0.000E+00

     Forces acting on atoms (cartesian axes, Ry/au):

     atom    1 type  1   force =     0.00000000   -0.00000000   -0.03226038
     atom    2 type  1   force =    -0.00000000   -0.00000000    0.06439800
     atom    3 type  1   force =     0.00000000   -0.00000000    0.01224368
     atom    4 type  1   force =     0.00000000   -0.00000000    0.00231242
     atom    5 type  1   force =    -0.00000000    0.00000000   -0.00384421
     atom    6 type  1   force =     0.00000000    0.00000000   -0.01204587
     atom    7 type  1   force =     0.00000000   -0.00000000   -0.05934848
     atom    8 type  1   force =    -0.00000000    0.00000000    0.02854484

     Total force =     0.059348     Total SCF correction =     0.000031
     Energy error            =      4.3E-03
     Gradient error          =      5.9E-02

     number of scf cycles    =   3
     number of bfgs steps    =   2

     energy   old            =   -2034.1943683380 Ry
     energy   new            =   -2034.1986976256 Ry

     CASE: energy  _new < energy  _old

     new trust radius        =       0.1064935157 bohr
     new conv_thr            =       0.0000000043 Ry


ATOMIC_POSITIONS (angstrom)
Fe            0.0000000000        0.0000000000        2.1525000000    0   0   0
Fe            1.4350000000        1.4350000000        0.7175000000    0   0   0
Fe            0.0000000000        0.0000000000        5.0225000000    0   0   0
Fe            1.4350000000        1.4350000000        3.5875000000    0   0   0
Fe            0.0000000000        0.0000000000        7.8925000000    0   0   0
Fe            1.4350000000        1.4350000000        6.4575000000    0   0   0
Fe           -0.0000000083       -0.0000000015       10.6344228599
Fe            1.4350000000        1.4350000000        9.3275000000    0   0   0



     Writing output data file ./tmp/fe_clean_fe_surface.save/
     NEW-OLD atomic charge density approx. for the potential

     Check: negative core charge=   -0.000078

     negative rho (up, down):  1.419E-03 0.000E+00

     total cpu time spent up to now is     7306.9 secs

     Self-consistent Calculation

     iteration #  1     ecut=    45.00 Ry     beta= 0.70
     Davidson diagonalization with overlap
     ethr =  1.00E-06,  avg # of iterations = 10.3

     negative rho (up, down):  1.334E-03 0.000E+00

     total cpu time spent up to now is     7405.2 secs

     total energy              =   -2034.13733022 Ry
     estimated scf accuracy    <       0.07817347 Ry

     iteration #  2     ecut=    45.00 Ry     beta= 0.70
     Davidson diagonalization with overlap
     ethr =  6.11E-05,  avg # of iterations = 12.3

     negative rho (up, down):  1.928E-02 0.000E+00

     total cpu time spent up to now is     8066.8 secs

     total energy              =   -2032.91989227 Ry
     estimated scf accuracy    <     186.23226408 Ry

     iteration #  3     ecut=    45.00 Ry     beta= 0.70
     Davidson diagonalization with overlap
     ethr =  6.11E-05,  avg # of iterations =  8.8

     negative rho (up, down):  1.854E-02 0.000E+00

     total cpu time spent up to now is     8131.3 secs

     total energy              =   -2033.33194413 Ry
     estimated scf accuracy    <     271.92706987 Ry

     iteration #  4     ecut=    45.00 Ry     beta= 0.70
     Davidson diagonalization with overlap
     ethr =  6.11E-05,  avg # of iterations =  8.3

     negative rho (up, down):  1.778E-02 0.000E+00

     total cpu time spent up to now is     8177.1 secs

     total energy              =   -2033.91799880 Ry
     estimated scf accuracy    <      40.19263548 Ry

     iteration #  5     ecut=    45.00 Ry     beta= 0.70
     Davidson diagonalization with overlap
     ethr =  6.11E-05,  avg # of iterations =  6.6

     negative rho (up, down):  1.126E-02 0.000E+00

     total cpu time spent up to now is     8221.6 secs

     total energy              =   -2034.14363937 Ry
     estimated scf accuracy    <       7.52359480 Ry

     iteration #  6     ecut=    45.00 Ry     beta= 0.70
     Davidson diagonalization with overlap
     ethr =  6.11E-05,  avg # of iterations =  3.1

     negative rho (up, down):  4.940E-03 0.000E+00

     total cpu time spent up to now is     8260.4 secs

     total energy              =   -2034.20136333 Ry
     estimated scf accuracy    <       0.49157334 Ry

     iteration #  7     ecut=    45.00 Ry     beta= 0.70
     Davidson diagonalization with overlap
     ethr =  6.11E-05,  avg # of iterations =  1.0

     negative rho (up, down):  3.669E-03 0.000E+00

     total cpu time spent up to now is     8288.2 secs

     total energy              =   -2034.20134824 Ry
     estimated scf accuracy    <       0.27227457 Ry

     iteration #  8     ecut=    45.00 Ry     beta= 0.70
     Davidson diagonalization with overlap
     ethr =  6.11E-05,  avg # of iterations =  1.0

     negative rho (up, down):  2.377E-03 0.000E+00

     total cpu time spent up to now is     8315.8 secs

     total energy              =   -2034.20282104 Ry
     estimated scf accuracy    <       0.06366423 Ry

     iteration #  9     ecut=    45.00 Ry     beta= 0.70
     Davidson diagonalization with overlap
     ethr =  4.97E-05,  avg # of iterations =  1.0

     negative rho (up, down):  1.680E-03 0.000E+00

     total cpu time spent up to now is     8343.6 secs

     total energy              =   -2034.20413542 Ry
     estimated scf accuracy    <       0.02153509 Ry

     iteration # 10     ecut=    45.00 Ry     beta= 0.70
     Davidson diagonalization with overlap
     ethr =  1.68E-05,  avg # of iterations =  2.5

     negative rho (up, down):  1.536E-03 0.000E+00

     total cpu time spent up to now is     8372.8 secs

     total energy              =   -2034.20369453 Ry
     estimated scf accuracy    <       0.03898993 Ry

     iteration # 11     ecut=    45.00 Ry     beta= 0.70
     Davidson diagonalization with overlap
     ethr =  1.68E-05,  avg # of iterations =  1.5

     negative rho (up, down):  1.609E-03 0.000E+00

     total cpu time spent up to now is     8402.7 secs

     total energy              =   -2034.20431778 Ry
     estimated scf accuracy    <       0.03760390 Ry

     iteration # 12     ecut=    45.00 Ry     beta= 0.70
     Davidson diagonalization with overlap
     ethr =  1.68E-05,  avg # of iterations =  1.1

     negative rho (up, down):  1.432E-03 0.000E+00

     total cpu time spent up to now is     8430.7 secs

     total energy              =   -2034.20481549 Ry
     estimated scf accuracy    <       0.00300129 Ry

     iteration # 13     ecut=    45.00 Ry     beta= 0.70
     Davidson diagonalization with overlap
     ethr =  2.34E-06,  avg # of iterations =  3.9

     negative rho (up, down):  1.378E-03 0.000E+00

     total cpu time spent up to now is     8461.5 secs

     total energy              =   -2034.20485929 Ry
     estimated scf accuracy    <       0.00921326 Ry

     iteration # 14     ecut=    45.00 Ry     beta= 0.70
     Davidson diagonalization with overlap
     ethr =  2.34E-06,  avg # of iterations =  1.1

     negative rho (up, down):  1.397E-03 0.000E+00

     total cpu time spent up to now is     8489.5 secs

     total energy              =   -2034.20480073 Ry
     estimated scf accuracy    <       0.01725349 Ry

     iteration # 15     ecut=    45.00 Ry     beta= 0.70
     Davidson diagonalization with overlap
     ethr =  2.34E-06,  avg # of iterations =  1.2

     negative rho (up, down):  1.493E-03 0.000E+00

     total cpu time spent up to now is     8518.4 secs

     total energy              =   -2034.20452161 Ry
     estimated scf accuracy    <       0.03260875 Ry

     iteration # 16     ecut=    45.00 Ry     beta= 0.70
     Davidson diagonalization with overlap
     ethr =  2.34E-06,  avg # of iterations =  1.3

     negative rho (up, down):  1.524E-03 0.000E+00

     total cpu time spent up to now is     8548.6 secs

     total energy              =   -2034.20428198 Ry
     estimated scf accuracy    <       0.08638424 Ry

     iteration # 17     ecut=    45.00 Ry     beta= 0.70
     Davidson diagonalization with overlap
     ethr =  2.34E-06,  avg # of iterations =  2.0

     negative rho (up, down):  1.557E-03 0.000E+00

     total cpu time spent up to now is     8581.6 secs

     total energy              =   -2034.20443591 Ry
     estimated scf accuracy    <       0.03901041 Ry

     iteration # 18     ecut=    45.00 Ry     beta= 0.70
     Davidson diagonalization with overlap
     ethr =  2.34E-06,  avg # of iterations =  1.8

     negative rho (up, down):  1.412E-03 0.000E+00

     total cpu time spent up to now is     8612.6 secs

     total energy              =   -2034.20478124 Ry
     estimated scf accuracy    <       0.00776177 Ry

     iteration # 19     ecut=    45.00 Ry     beta= 0.70
     Davidson diagonalization with overlap
     ethr =  2.34E-06,  avg # of iterations =  1.0

     negative rho (up, down):  1.379E-03 0.000E+00

     total cpu time spent up to now is     8640.9 secs

     total energy              =   -2034.20486018 Ry
     estimated scf accuracy    <       0.00276912 Ry

     iteration # 20     ecut=    45.00 Ry     beta= 0.70
     Davidson diagonalization with overlap
     ethr =  2.16E-06,  avg # of iterations =  1.1

     negative rho (up, down):  1.369E-03 0.000E+00

     total cpu time spent up to now is     8669.3 secs

     total energy              =   -2034.20487904 Ry
     estimated scf accuracy    <       0.00109954 Ry

     iteration # 21     ecut=    45.00 Ry     beta= 0.70
     Davidson diagonalization with overlap
     ethr =  8.59E-07,  avg # of iterations =  1.0

     negative rho (up, down):  1.360E-03 0.000E+00

     total cpu time spent up to now is     8696.8 secs

     total energy              =   -2034.20490600 Ry
     estimated scf accuracy    <       0.00000899 Ry

     iteration # 22     ecut=    45.00 Ry     beta= 0.70
     Davidson diagonalization with overlap
     ethr =  7.02E-09,  avg # of iterations =  5.1

     negative rho (up, down):  1.362E-03 0.000E+00

     total cpu time spent up to now is     8736.4 secs

     total energy              =   -2034.20490286 Ry
     estimated scf accuracy    <       0.00054629 Ry

     iteration # 23     ecut=    45.00 Ry     beta= 0.70
     Davidson diagonalization with overlap
     ethr =  7.02E-09,  avg # of iterations =  3.6

     negative rho (up, down):  1.360E-03 0.000E+00

     total cpu time spent up to now is     8770.2 secs

     total energy              =   -2034.20490628 Ry
     estimated scf accuracy    <       0.00034399 Ry

     iteration # 24     ecut=    45.00 Ry     beta= 0.70
     Davidson diagonalization with overlap
     ethr =  7.02E-09,  avg # of iterations =  2.3

     negative rho (up, down):  1.360E-03 0.000E+00

     total cpu time spent up to now is     8803.5 secs

     total energy              =   -2034.20490753 Ry
     estimated scf accuracy    <       0.00000345 Ry

     iteration # 25     ecut=    45.00 Ry     beta= 0.70
     Davidson diagonalization with overlap
     ethr =  2.70E-09,  avg # of iterations =  2.8

     negative rho (up, down):  1.360E-03 0.000E+00

     total cpu time spent up to now is     8836.5 secs

     total energy              =   -2034.20490668 Ry
     estimated scf accuracy    <       0.00007360 Ry

     iteration # 26     ecut=    45.00 Ry     beta= 0.70
     Davidson diagonalization with overlap
     ethr =  2.70E-09,  avg # of iterations =  1.3

     negative rho (up, down):  1.361E-03 0.000E+00

     total cpu time spent up to now is     8865.4 secs

     total energy              =   -2034.20490709 Ry
     estimated scf accuracy    <       0.00008392 Ry

     iteration # 27     ecut=    45.00 Ry     beta= 0.70
     Davidson diagonalization with overlap
     ethr =  2.70E-09,  avg # of iterations =  1.5

     negative rho (up, down):  1.361E-03 0.000E+00

     total cpu time spent up to now is     8895.5 secs

     total energy              =   -2034.20490721 Ry
     estimated scf accuracy    <       0.00002264 Ry

     iteration # 28     ecut=    45.00 Ry     beta= 0.70
     Davidson diagonalization with overlap
     ethr =  2.70E-09,  avg # of iterations =  1.1

     negative rho (up, down):  1.361E-03 0.000E+00

     total cpu time spent up to now is     8924.4 secs

     total energy              =   -2034.20490702 Ry
     estimated scf accuracy    <       0.00007079 Ry

     iteration # 29     ecut=    45.00 Ry     beta= 0.70
     Davidson diagonalization with overlap
     ethr =  2.70E-09,  avg # of iterations =  1.1

     negative rho (up, down):  1.360E-03 0.000E+00

     total cpu time spent up to now is     8952.6 secs

     total energy              =   -2034.20490735 Ry
     estimated scf accuracy    <       0.00002113 Ry

     iteration # 30     ecut=    45.00 Ry     beta= 0.70
     Davidson diagonalization with overlap
     ethr =  2.70E-09,  avg # of iterations =  2.8

     negative rho (up, down):  1.361E-03 0.000E+00

     total cpu time spent up to now is     8987.1 secs

     total energy              =   -2034.20490578 Ry
     estimated scf accuracy    <       0.00014765 Ry

     iteration # 31     ecut=    45.00 Ry     beta= 0.70
     Davidson diagonalization with overlap
     ethr =  2.70E-09,  avg # of iterations =  2.6

     negative rho (up, down):  1.361E-03 0.000E+00

     total cpu time spent up to now is     9021.7 secs

     total energy              =   -2034.20490720 Ry
     estimated scf accuracy    <       0.00003910 Ry

     iteration # 32     ecut=    45.00 Ry     beta= 0.70
     Davidson diagonalization with overlap
     ethr =  2.70E-09,  avg # of iterations =  1.1

     negative rho (up, down):  1.361E-03 0.000E+00

     total cpu time spent up to now is     9049.8 secs

     total energy              =   -2034.20490754 Ry
     estimated scf accuracy    <       0.00000988 Ry

     iteration # 33     ecut=    45.00 Ry     beta= 0.70
     Davidson diagonalization with overlap
     ethr =  2.70E-09,  avg # of iterations =  1.0

     negative rho (up, down):  1.361E-03 0.000E+00

     total cpu time spent up to now is     9077.1 secs

     total energy              =   -2034.20490759 Ry
     estimated scf accuracy    <       0.00001320 Ry

     iteration # 34     ecut=    45.00 Ry     beta= 0.70
     Davidson diagonalization with overlap
     ethr =  2.70E-09,  avg # of iterations =  1.1

     negative rho (up, down):  1.361E-03 0.000E+00

     total cpu time spent up to now is     9104.9 secs

     total energy              =   -2034.20490763 Ry
     estimated scf accuracy    <       0.00000121 Ry

     iteration # 35     ecut=    45.00 Ry     beta= 0.70
     Davidson diagonalization with overlap
     ethr =  9.47E-10,  avg # of iterations =  1.3

     negative rho (up, down):  1.361E-03 0.000E+00

     total cpu time spent up to now is     9134.1 secs

     total energy              =   -2034.20490760 Ry
     estimated scf accuracy    <       0.00000233 Ry

     iteration # 36     ecut=    45.00 Ry     beta= 0.70
     Davidson diagonalization with overlap
     ethr =  9.47E-10,  avg # of iterations =  1.0

     negative rho (up, down):  1.361E-03 0.000E+00

     total cpu time spent up to now is     9163.8 secs

     total energy              =   -2034.20490759 Ry
     estimated scf accuracy    <       0.00000426 Ry

     iteration # 37     ecut=    45.00 Ry     beta= 0.70
     Davidson diagonalization with overlap
     ethr =  9.47E-10,  avg # of iterations =  1.3

     negative rho (up, down):  1.361E-03 0.000E+00

     total cpu time spent up to now is     9192.9 secs

     total energy              =   -2034.20490751 Ry
     estimated scf accuracy    <       0.00000731 Ry

     iteration # 38     ecut=    45.00 Ry     beta= 0.70
     Davidson diagonalization with overlap
     ethr =  9.47E-10,  avg # of iterations =  1.3

     negative rho (up, down):  1.361E-03 0.000E+00

     total cpu time spent up to now is     9222.0 secs

     total energy              =   -2034.20490742 Ry
     estimated scf accuracy    <       0.00002033 Ry

     iteration # 39     ecut=    45.00 Ry     beta= 0.70
     Davidson diagonalization with overlap
     ethr =  9.47E-10,  avg # of iterations =  2.4

     negative rho (up, down):  1.361E-03 0.000E+00

     total cpu time spent up to now is     9252.2 secs

     total energy              =   -2034.20490723 Ry
     estimated scf accuracy    <       0.00010535 Ry

     iteration # 40     ecut=    45.00 Ry     beta= 0.70
     Davidson diagonalization with overlap
     ethr =  9.47E-10,  avg # of iterations =  1.5

     negative rho (up, down):  1.361E-03 0.000E+00

     total cpu time spent up to now is     9283.0 secs

     total energy              =   -2034.20490761 Ry
     estimated scf accuracy    <       0.00000274 Ry

     iteration # 41     ecut=    45.00 Ry     beta= 0.70
     Davidson diagonalization with overlap
     ethr =  9.47E-10,  avg # of iterations =  1.0

     negative rho (up, down):  1.361E-03 0.000E+00

     total cpu time spent up to now is     9310.7 secs

     total energy              =   -2034.20490762 Ry
     estimated scf accuracy    <       0.00000179 Ry

     iteration # 42     ecut=    45.00 Ry     beta= 0.70
     Davidson diagonalization with overlap
     ethr =  9.47E-10,  avg # of iterations =  1.1

     negative rho (up, down):  1.361E-03 0.000E+00

     total cpu time spent up to now is     9340.5 secs

     total energy              =   -2034.20490761 Ry
     estimated scf accuracy    <       0.00000446 Ry

     iteration # 43     ecut=    45.00 Ry     beta= 0.70
     Davidson diagonalization with overlap
     ethr =  9.47E-10,  avg # of iterations =  1.0

     negative rho (up, down):  1.361E-03 0.000E+00

     total cpu time spent up to now is     9369.5 secs

     total energy              =   -2034.20490763 Ry
     estimated scf accuracy    <       0.00000406 Ry

     iteration # 44     ecut=    45.00 Ry     beta= 0.70
     Davidson diagonalization with overlap
     ethr =  9.47E-10,  avg # of iterations =  1.1

     negative rho (up, down):  1.361E-03 0.000E+00

     total cpu time spent up to now is     9398.4 secs

     total energy              =   -2034.20490764 Ry
     estimated scf accuracy    <       0.00000079 Ry

     iteration # 45     ecut=    45.00 Ry     beta= 0.70
     Davidson diagonalization with overlap
     ethr =  6.18E-10,  avg # of iterations =  1.1

     negative rho (up, down):  1.361E-03 0.000E+00

     total cpu time spent up to now is     9427.1 secs

     total energy              =   -2034.20490763 Ry
     estimated scf accuracy    <       0.00000080 Ry

     iteration # 46     ecut=    45.00 Ry     beta= 0.70
     Davidson diagonalization with overlap
     ethr =  6.18E-10,  avg # of iterations =  1.0

     negative rho (up, down):  1.361E-03 0.000E+00

     total cpu time spent up to now is     9456.9 secs

     total energy              =   -2034.20490762 Ry
     estimated scf accuracy    <       0.00000241 Ry

     iteration # 47     ecut=    45.00 Ry     beta= 0.70
     Davidson diagonalization with overlap
     ethr =  6.18E-10,  avg # of iterations =  1.0

     negative rho (up, down):  1.361E-03 0.000E+00

     total cpu time spent up to now is     9487.3 secs

     total energy              =   -2034.20490761 Ry
     estimated scf accuracy    <       0.00000211 Ry

     iteration # 48     ecut=    45.00 Ry     beta= 0.70
     Davidson diagonalization with overlap
     ethr =  6.18E-10,  avg # of iterations =  1.0

     negative rho (up, down):  1.361E-03 0.000E+00

     total cpu time spent up to now is     9515.9 secs

     total energy              =   -2034.20490761 Ry
     estimated scf accuracy    <       0.00000372 Ry

     iteration # 49     ecut=    45.00 Ry     beta= 0.70
     Davidson diagonalization with overlap
     ethr =  6.18E-10,  avg # of iterations =  1.0

     negative rho (up, down):  1.361E-03 0.000E+00

     total cpu time spent up to now is     9543.9 secs

     total energy              =   -2034.20490763 Ry
     estimated scf accuracy    <       0.00000155 Ry

     iteration # 50     ecut=    45.00 Ry     beta= 0.70
     Davidson diagonalization with overlap
     ethr =  6.18E-10,  avg # of iterations =  2.4

     negative rho (up, down):  1.361E-03 0.000E+00

     total cpu time spent up to now is     9578.6 secs

     total energy              =   -2034.20490746 Ry
     estimated scf accuracy    <       0.00001196 Ry

     iteration # 51     ecut=    45.00 Ry     beta= 0.70
     Davidson diagonalization with overlap
     ethr =  6.18E-10,  avg # of iterations =  2.8

     negative rho (up, down):  1.361E-03 0.000E+00

     total cpu time spent up to now is     9615.0 secs

     total energy              =   -2034.20490736 Ry
     estimated scf accuracy    <       0.00001887 Ry

     iteration # 52     ecut=    45.00 Ry     beta= 0.70
     Davidson diagonalization with overlap
     ethr =  6.18E-10,  avg # of iterations =  2.1

     negative rho (up, down):  1.361E-03 0.000E+00

     total cpu time spent up to now is     9648.7 secs

     total energy              =   -2034.20490763 Ry
     estimated scf accuracy    <       0.00000183 Ry

     iteration # 53     ecut=    45.00 Ry     beta= 0.70
     Davidson diagonalization with overlap
     ethr =  6.18E-10,  avg # of iterations =  1.0

     negative rho (up, down):  1.361E-03 0.000E+00

     total cpu time spent up to now is     9680.4 secs

     total energy              =   -2034.20490763 Ry
     estimated scf accuracy    <       0.00000288 Ry

     iteration # 54     ecut=    45.00 Ry     beta= 0.70
     Davidson diagonalization with overlap
     ethr =  6.18E-10,  avg # of iterations =  1.1

     negative rho (up, down):  1.361E-03 0.000E+00

     total cpu time spent up to now is     9711.3 secs

     total energy              =   -2034.20490764 Ry
     estimated scf accuracy    <       0.00000063 Ry

     iteration # 55     ecut=    45.00 Ry     beta= 0.70
     Davidson diagonalization with overlap
     ethr =  4.93E-10,  avg # of iterations =  1.1

     negative rho (up, down):  1.361E-03 0.000E+00

     total cpu time spent up to now is     9739.4 secs

     total energy              =   -2034.20490764 Ry
     estimated scf accuracy    <       0.00000038 Ry

     iteration # 56     ecut=    45.00 Ry     beta= 0.70
     Davidson diagonalization with overlap
     ethr =  2.96E-10,  avg # of iterations =  1.0

     negative rho (up, down):  1.361E-03 0.000E+00

     total cpu time spent up to now is     9767.1 secs

     total energy              =   -2034.20490764 Ry
     estimated scf accuracy    <       0.00000101 Ry

     iteration # 57     ecut=    45.00 Ry     beta= 0.70
     Davidson diagonalization with overlap
     ethr =  2.96E-10,  avg # of iterations =  1.0

     negative rho (up, down):  1.361E-03 0.000E+00

     total cpu time spent up to now is     9794.4 secs

     total energy              =   -2034.20490761 Ry
     estimated scf accuracy    <       0.00000178 Ry

     iteration # 58     ecut=    45.00 Ry     beta= 0.70
     Davidson diagonalization with overlap
     ethr =  2.96E-10,  avg # of iterations =  1.3

     negative rho (up, down):  1.361E-03 0.000E+00

     total cpu time spent up to now is     9823.3 secs

     total energy              =   -2034.20490755 Ry
     estimated scf accuracy    <       0.00000828 Ry

     iteration # 59     ecut=    45.00 Ry     beta= 0.70
     Davidson diagonalization with overlap
     ethr =  2.96E-10,  avg # of iterations =  3.1

     negative rho (up, down):  1.361E-03 0.000E+00

     total cpu time spent up to now is     9858.8 secs

     total energy              =   -2034.20490709 Ry
     estimated scf accuracy    <       0.00016488 Ry

     iteration # 60     ecut=    45.00 Ry     beta= 0.70
     Davidson diagonalization with overlap
     ethr =  2.96E-10,  avg # of iterations =  2.9

     negative rho (up, down):  1.361E-03 0.000E+00

     total cpu time spent up to now is     9893.5 secs

     total energy              =   -2034.20490762 Ry
     estimated scf accuracy    <       0.00000135 Ry

     iteration # 61     ecut=    45.00 Ry     beta= 0.70
     Davidson diagonalization with overlap
     ethr =  2.96E-10,  avg # of iterations =  1.0

     negative rho (up, down):  1.361E-03 0.000E+00

     total cpu time spent up to now is     9920.8 secs

     total energy              =   -2034.20490764 Ry
     estimated scf accuracy    <       0.00000030 Ry

     iteration # 62     ecut=    45.00 Ry     beta= 0.70
     Davidson diagonalization with overlap
     ethr =  2.32E-10,  avg # of iterations =  1.0

     negative rho (up, down):  1.361E-03 0.000E+00

     total cpu time spent up to now is     9948.3 secs

     total energy              =   -2034.20490763 Ry
     estimated scf accuracy    <       0.00000263 Ry

     iteration # 63     ecut=    45.00 Ry     beta= 0.70
     Davidson diagonalization with overlap
     ethr =  2.32E-10,  avg # of iterations =  1.0

     negative rho (up, down):  1.361E-03 0.000E+00

     total cpu time spent up to now is     9976.0 secs

     total energy              =   -2034.20490764 Ry
     estimated scf accuracy    <       0.00000218 Ry

     iteration # 64     ecut=    45.00 Ry     beta= 0.70
     Davidson diagonalization with overlap
     ethr =  2.32E-10,  avg # of iterations =  1.5

     negative rho (up, down):  1.361E-03 0.000E+00

     total cpu time spent up to now is    10005.7 secs

     total energy              =   -2034.20490765 Ry
     estimated scf accuracy    <       0.00000019 Ry

     iteration # 65     ecut=    45.00 Ry     beta= 0.70
     Davidson diagonalization with overlap
     ethr =  1.45E-10,  avg # of iterations =  1.9

     negative rho (up, down):  1.361E-03 0.000E+00

     total cpu time spent up to now is    10037.0 secs

     total energy              =   -2034.20490764 Ry
     estimated scf accuracy    <       0.00000031 Ry

     iteration # 66     ecut=    45.00 Ry     beta= 0.70
     Davidson diagonalization with overlap
     ethr =  1.45E-10,  avg # of iterations =  1.0

     negative rho (up, down):  1.361E-03 0.000E+00

     total cpu time spent up to now is    10064.4 secs

     total energy              =   -2034.20490764 Ry
     estimated scf accuracy    <       0.00000100 Ry

     iteration # 67     ecut=    45.00 Ry     beta= 0.70
     Davidson diagonalization with overlap
     ethr =  1.45E-10,  avg # of iterations =  1.1

     negative rho (up, down):  1.361E-03 0.000E+00

     total cpu time spent up to now is    10092.4 secs

     total energy              =   -2034.20490763 Ry
     estimated scf accuracy    <       0.00000130 Ry

     iteration # 68     ecut=    45.00 Ry     beta= 0.70
     Davidson diagonalization with overlap
     ethr =  1.45E-10,  avg # of iterations =  1.1

     negative rho (up, down):  1.361E-03 0.000E+00

     total cpu time spent up to now is    10120.4 secs

     total energy              =   -2034.20490764 Ry
     estimated scf accuracy    <       0.00000116 Ry

     iteration # 69     ecut=    45.00 Ry     beta= 0.70
     Davidson diagonalization with overlap
     ethr =  1.45E-10,  avg # of iterations =  1.0

     negative rho (up, down):  1.361E-03 0.000E+00

     total cpu time spent up to now is    10147.8 secs

     total energy              =   -2034.20490765 Ry
     estimated scf accuracy    <       0.00000001 Ry

     iteration # 70     ecut=    45.00 Ry     beta= 0.70
     Davidson diagonalization with overlap
     ethr =  1.06E-11,  avg # of iterations =  3.5

     negative rho (up, down):  1.361E-03 0.000E+00

     total cpu time spent up to now is    10182.9 secs

     total energy              =   -2034.20490764 Ry
     estimated scf accuracy    <       0.00000112 Ry

     iteration # 71     ecut=    45.00 Ry     beta= 0.70
     Davidson diagonalization with overlap
     ethr =  1.06E-11,  avg # of iterations =  4.5

     negative rho (up, down):  1.361E-03 0.000E+00

     total cpu time spent up to now is    10221.0 secs

     total energy              =   -2034.20490764 Ry
     estimated scf accuracy    <       0.00000235 Ry

     iteration # 72     ecut=    45.00 Ry     beta= 0.70
     Davidson diagonalization with overlap
     ethr =  1.06E-11,  avg # of iterations =  3.4

     negative rho (up, down):  1.361E-03 0.000E+00

     total cpu time spent up to now is    10255.2 secs

     total energy              =   -2034.20490765 Ry
     estimated scf accuracy    <       0.00000006 Ry

     iteration # 73     ecut=    45.00 Ry     beta= 0.70
     Davidson diagonalization with overlap
     ethr =  1.06E-11,  avg # of iterations =  1.0

     negative rho (up, down):  1.361E-03 0.000E+00

     total cpu time spent up to now is    10282.7 secs

     total energy              =   -2034.20490765 Ry
     estimated scf accuracy    <       0.00000009 Ry

     iteration # 74     ecut=    45.00 Ry     beta= 0.70
     Davidson diagonalization with overlap
     ethr =  1.06E-11,  avg # of iterations =  1.1

     negative rho (up, down):  1.361E-03 0.000E+00

     total cpu time spent up to now is    10310.9 secs

     End of self-consistent calculation

          k = 0.0000 0.0000 0.0000 (  6457 PWs)   bands (ev):

   -80.4970 -80.4740 -80.4574 -80.4166 -80.3726 -80.3623 -80.1389 -80.0471
   -46.5773 -46.5773 -46.5588 -46.5467 -46.5455 -46.5455 -46.5254 -46.5030
   -46.5030 -46.4626 -46.4287 -46.4287 -46.3833 -46.3462 -46.3462 -46.3161
   -46.3086 -46.3086 -46.1691 -46.1446 -46.1446 -46.0893 -46.0582 -46.0582
    -1.4999  -0.7289   0.4838   1.8301   2.6970   2.7324   2.8036   3.0200
     3.1796   3.3223   3.5817   4.3116   5.0595   5.0595   5.0719   5.0926
     5.1011   5.1011   5.2330   5.2330   5.2922   5.5017   5.5017   5.6483
     5.7324   5.9091   5.9091   6.1277   6.1654   6.2176   6.2255   6.4227
     6.4227   6.4851   6.6187   6.6340   6.8397   6.9550   6.9550   7.0223
     7.2718   7.3163   7.3370   7.3370   7.4511

          k = 0.0000 0.2500 0.0000 (  6508 PWs)   bands (ev):

   -80.4869 -80.4594 -80.4491 -80.4156 -80.3787 -80.3735 -80.1394 -80.0460
   -46.6323 -46.6133 -46.5960 -46.5755 -46.5443 -46.5355 -46.5166 -46.5091
   -46.4892 -46.4536 -46.4407 -46.4308 -46.3652 -46.3621 -46.3597 -46.3432
   -46.3175 -46.3000 -46.1623 -46.1599 -46.1583 -46.0844 -46.0797 -46.0642
    -0.2949   0.3909   1.3921   2.3433   2.9601   3.0719   3.1984   3.2614
     3.4422   3.6787   4.2011   4.4200   4.4592   4.6785   4.7066   4.7387
     4.9408   4.9936   5.0740   5.0852   5.2597   5.4646   5.5599   5.7312
     5.7889   6.0881   6.1259   6.1402   6.2578   6.2775   6.2849   6.4065
     6.4736   6.5110   6.6001   6.6782   6.7518   6.8471   6.8543   6.9640
     7.2608   7.3795   7.5198   7.5706   7.5914

          k = 0.0000-0.5000 0.0000 (  6560 PWs)   bands (ev):

   -80.4767 -80.4434 -80.4283 -80.4201 -80.3916 -80.3864 -80.1399 -80.0450
   -46.6788 -46.6602 -46.6252 -46.6090 -46.5590 -46.5517 -46.5113 -46.4639
   -46.4518 -46.4485 -46.4415 -46.4353 -46.4060 -46.3981 -46.3578 -46.3542
   -46.3071 -46.3069 -46.1740 -46.1718 -46.1545 -46.1002 -46.0799 -46.0701
     2.2763   2.2839   2.3475   2.3496   2.3854   2.5079   3.2262   3.4029
     4.0177   4.0560   4.3334   4.3800   4.4622   4.5376   4.6704   4.7824
     4.8739   4.8845   5.3724   5.3854   5.4700   5.5839   5.6202   5.6756
     5.9921   6.0044   6.2926   6.3465   6.4714   6.4844   6.4927   6.5006
     6.5417   6.5459   7.0167   7.0210   7.4329   7.4497   7.5216   7.5674
     7.6230   7.6378   7.6622   7.6862   7.7609

          k = 0.2500 0.0000 0.0000 (  6508 PWs)   bands (ev):

   -80.4869 -80.4594 -80.4491 -80.4156 -80.3787 -80.3735 -80.1394 -80.0460
   -46.6323 -46.6133 -46.5960 -46.5755 -46.5443 -46.5355 -46.5166 -46.5091
   -46.4892 -46.4536 -46.4407 -46.4308 -46.3652 -46.3621 -46.3597 -46.3432
   -46.3175 -46.3000 -46.1623 -46.1599 -46.1583 -46.0844 -46.0797 -46.0642
    -0.2949   0.3909   1.3921   2.3433   2.9601   3.0719   3.1984   3.2614
     3.4422   3.6787   4.2011   4.4200   4.4592   4.6785   4.7066   4.7387
     4.9408   4.9936   5.0740   5.0852   5.2597   5.4646   5.5599   5.7312
     5.7889   6.0881   6.1259   6.1402   6.2578   6.2775   6.2849   6.4065
     6.4736   6.5110   6.6001   6.6782   6.7518   6.8471   6.8543   6.9640
     7.2608   7.3795   7.5198   7.5706   7.5914

          k = 0.2500 0.2500 0.0000 (  6498 PWs)   bands (ev):

   -80.4806 -80.4497 -80.4420 -80.4144 -80.3821 -80.3790 -80.1385 -80.0444
   -46.6243 -46.6106 -46.5937 -46.5897 -46.5677 -46.5572 -46.5392 -46.5213
   -46.5179 -46.4770 -46.4520 -46.4049 -46.3651 -46.3596 -46.3522 -46.3347
   -46.3326 -46.3137 -46.1834 -46.1600 -46.1548 -46.0928 -46.0785 -46.0769
     0.7637   1.4214   2.3468   3.0898   3.3443   3.5535   3.7037   3.7998
     3.8424   3.9237   3.9827   4.0574   4.1809   4.2020   4.3286   4.3433
     4.4467   4.4777   4.5556   4.7411   4.7925   5.0929   5.7241   5.7396
     5.8536   5.9901   6.3037   6.3730   6.4720   6.4835   6.5192   6.5421
     6.5996   6.6172   6.7100   6.7931   6.7935   6.8240   6.8855   6.9648
     7.1219   7.4606   7.4609   8.2321   9.2071

          k = 0.2500-0.5000 0.0000 (  6510 PWs)   bands (ev):

   -80.4743 -80.4411 -80.4261 -80.4178 -80.3893 -80.3841 -80.1376 -80.0428
   -46.6510 -46.6182 -46.6173 -46.6156 -46.6042 -46.5967 -46.5582 -46.5017
   -46.4739 -46.4591 -46.4380 -46.4310 -46.3914 -46.3768 -46.3354 -46.3352
   -46.3312 -46.3276 -46.1901 -46.1757 -46.1497 -46.0992 -46.0954 -46.0737
     2.6010   2.6393   2.9996   3.0361   3.1025   3.2069   3.5434   3.6080
     3.9108   3.9265   4.1015   4.1702   4.2183   4.2807   4.4949   4.5039
     4.5648   4.6674   4.7095   4.7528   5.1729   5.2082   5.7050   5.8477
     6.2252   6.2597   6.2910   6.3997   6.4747   6.4747   6.5946   6.6024
     6.6961   6.7191   6.8183   6.8222   6.9081   6.9081   7.0886   7.0981
     8.0151   8.0351   8.7792   8.7827   9.6962

          k = 0.2500-0.2500 0.0000 (  6498 PWs)   bands (ev):

   -80.4806 -80.4497 -80.4420 -80.4144 -80.3821 -80.3790 -80.1385 -80.0444
   -46.6243 -46.6106 -46.5937 -46.5897 -46.5677 -46.5572 -46.5392 -46.5213
   -46.5179 -46.4770 -46.4520 -46.4049 -46.3651 -46.3596 -46.3522 -46.3347
   -46.3326 -46.3137 -46.1834 -46.1600 -46.1548 -46.0928 -46.0785 -46.0769
     0.7637   1.4214   2.3468   3.0898   3.3443   3.5535   3.7037   3.7998
     3.8424   3.9237   3.9827   4.0574   4.1809   4.2020   4.3286   4.3433
     4.4467   4.4777   4.5556   4.7411   4.7925   5.0929   5.7241   5.7396
     5.8536   5.9901   6.3037   6.3730   6.4720   6.4835   6.5192   6.5421
     6.5996   6.6172   6.7100   6.7931   6.7935   6.8240   6.8855   6.9648
     7.1219   7.4606   7.4609   8.2321   9.2071

          k =-0.5000 0.0000 0.0000 (  6560 PWs)   bands (ev):

   -80.4767 -80.4434 -80.4283 -80.4201 -80.3916 -80.3864 -80.1399 -80.0450
   -46.6788 -46.6602 -46.6252 -46.6090 -46.5590 -46.5517 -46.5113 -46.4639
   -46.4518 -46.4485 -46.4415 -46.4353 -46.4060 -46.3981 -46.3578 -46.3542
   -46.3071 -46.3069 -46.1740 -46.1718 -46.1545 -46.1002 -46.0799 -46.0701
     2.2763   2.2839   2.3475   2.3496   2.3854   2.5079   3.2262   3.4029
     4.0177   4.0560   4.3334   4.3800   4.4622   4.5376   4.6704   4.7824
     4.8739   4.8845   5.3724   5.3854   5.4700   5.5839   5.6202   5.6756
     5.9921   6.0044   6.2926   6.3465   6.4714   6.4844   6.4927   6.5006
     6.5417   6.5459   7.0167   7.0210   7.4329   7.4497   7.5216   7.5674
     7.6230   7.6378   7.6622   7.6862   7.7609

          k =-0.5000 0.2500 0.0000 (  6510 PWs)   bands (ev):

   -80.4743 -80.4411 -80.4261 -80.4178 -80.3893 -80.3841 -80.1376 -80.0428
   -46.6510 -46.6182 -46.6173 -46.6156 -46.6042 -46.5967 -46.5582 -46.5017
   -46.4739 -46.4591 -46.4380 -46.4310 -46.3914 -46.3768 -46.3354 -46.3352
   -46.3312 -46.3276 -46.1901 -46.1757 -46.1497 -46.0992 -46.0954 -46.0737
     2.6010   2.6393   2.9996   3.0361   3.1025   3.2069   3.5434   3.6080
     3.9108   3.9265   4.1015   4.1702   4.2183   4.2807   4.4949   4.5039
     4.5648   4.6674   4.7095   4.7528   5.1729   5.2082   5.7050   5.8477
     6.2252   6.2597   6.2910   6.3997   6.4747   6.4747   6.5946   6.6024
     6.6961   6.7191   6.8183   6.8222   6.9081   6.9081   7.0886   7.0981
     8.0151   8.0351   8.7792   8.7827   9.7203

          k =-0.5000-0.5000 0.0000 (  6576 PWs)   bands (ev):

   -80.4722 -80.4390 -80.4239 -80.4156 -80.3871 -80.3819 -80.1355 -80.0407
   -46.6795 -46.6795 -46.6391 -46.6391 -46.5772 -46.5772 -46.4795 -46.4785
   -46.4785 -46.4650 -46.4511 -46.4452 -46.4277 -46.4270 -46.3724 -46.3724
   -46.3177 -46.3177 -46.1836 -46.1741 -46.1741 -46.0990 -46.0990 -46.0948
     2.4340   2.4733   2.9311   2.9850   3.6034   3.6183   3.8639   3.8639
     3.8872   3.8872   3.9509   3.9509   4.1292   4.1292   4.2586   4.3472
     4.4692   4.4692   5.0264   5.0264   5.8688   5.8688   6.4631   6.5488
     6.6045   6.6168   6.6880   6.6933   6.7303   6.7496   6.7602   6.7665
     6.7702   6.7983   6.8025   6.8041   7.0179   7.1284   7.1440   7.1440
     8.1146   8.1146   9.7924   9.7924  11.5999

     the Fermi energy is     6.5965 ev

!    total energy              =   -2034.20490765 Ry
     estimated scf accuracy    <          1.7E-09 Ry
     smearing contrib. (-TS)   =      -0.01866990 Ry
     internal energy E=F+TS    =   -2034.18623774 Ry

     The total energy is F=E-TS. E is the sum of the following terms:
     one-electron contribution =  -13868.57433924 Ry
     hartree contribution      =    6957.99074730 Ry
     xc contribution           =    -277.12827238 Ry
     ewald contribution        =    5153.52562659 Ry

     convergence has been achieved in  74 iterations

     negative rho (up, down):  1.361E-03 0.000E+00

     Forces acting on atoms (cartesian axes, Ry/au):

     atom    1 type  1   force =     0.00000000    0.00000000   -0.03209165
     atom    2 type  1   force =     0.00000000    0.00000000    0.06382058
     atom    3 type  1   force =    -0.00000000   -0.00000000    0.01310197
     atom    4 type  1   force =     0.00000000    0.00000000    0.00171365
     atom    5 type  1   force =     0.00000000   -0.00000001   -0.00177362
     atom    6 type  1   force =     0.00000000    0.00000000   -0.01205531
     atom    7 type  1   force =     0.00000000   -0.00000000   -0.05712562
     atom    8 type  1   force =    -0.00000001    0.00000000    0.02441001

     Total force =     0.057126     Total SCF correction =     0.000093
     Energy error            =      6.2E-03
     Gradient error          =      5.7E-02

     number of scf cycles    =   4
     number of bfgs steps    =   3

     energy   old            =   -2034.1986976256 Ry
     energy   new            =   -2034.2049076482 Ry

     CASE: energy  _new < energy  _old

     new trust radius        =       0.1597402736 bohr
     new conv_thr            =       0.0000000057 Ry


ATOMIC_POSITIONS (angstrom)
Fe            0.0000000000        0.0000000000        2.1525000000    0   0   0
Fe            1.4350000000        1.4350000000        0.7175000000    0   0   0
Fe            0.0000000000        0.0000000000        5.0225000000    0   0   0
Fe            1.4350000000        1.4350000000        3.5875000000    0   0   0
Fe            0.0000000000        0.0000000000        7.8925000000    0   0   0
Fe            1.4350000000        1.4350000000        6.4575000000    0   0   0
Fe           -0.0000000164       -0.0000000071       10.5498919474
Fe            1.4350000000        1.4350000000        9.3275000000    0   0   0



     Writing output data file ./tmp/fe_clean_fe_surface.save/
     NEW-OLD atomic charge density approx. for the potential

     Check: negative core charge=   -0.000078

     negative rho (up, down):  1.450E-03 0.000E+00

     total cpu time spent up to now is    10322.4 secs

     Self-consistent Calculation

     iteration #  1     ecut=    45.00 Ry     beta= 0.70
     Davidson diagonalization with overlap
     c_bands:  1 eigenvalues not converged
     ethr =  1.00E-06,  avg # of iterations = 11.9

     negative rho (up, down):  1.450E-03 0.000E+00

     total cpu time spent up to now is    10427.1 secs

     total energy              =   -2034.07546243 Ry
     estimated scf accuracy    <       0.16038040 Ry

     iteration #  2     ecut=    45.00 Ry     beta= 0.70
     Davidson diagonalization with overlap
     ethr =  1.25E-04,  avg # of iterations =  9.2

     negative rho (up, down):  2.017E-02 0.000E+00

     total cpu time spent up to now is    10492.1 secs

     total energy              =   -2031.77254906 Ry
     estimated scf accuracy    <     323.89235580 Ry

     iteration #  3     ecut=    45.00 Ry     beta= 0.70
     Davidson diagonalization with overlap
     ethr =  1.25E-04,  avg # of iterations =  8.3

     negative rho (up, down):  1.510E-02 0.000E+00

     total cpu time spent up to now is    10556.6 secs

     total energy              =   -2032.85324644 Ry
     estimated scf accuracy    <     353.55418490 Ry

     iteration #  4     ecut=    45.00 Ry     beta= 0.70
     Davidson diagonalization with overlap
     ethr =  1.25E-04,  avg # of iterations =  7.8

     negative rho (up, down):  1.600E-02 0.000E+00

     total cpu time spent up to now is    10600.5 secs

     total energy              =   -2033.88309877 Ry
     estimated scf accuracy    <      34.13243895 Ry

     iteration #  5     ecut=    45.00 Ry     beta= 0.70
     Davidson diagonalization with overlap
     ethr =  1.25E-04,  avg # of iterations =  5.4

     negative rho (up, down):  1.012E-02 0.000E+00

     total cpu time spent up to now is    10640.9 secs

     total energy              =   -2034.10651455 Ry
     estimated scf accuracy    <      18.14201300 Ry

     iteration #  6     ecut=    45.00 Ry     beta= 0.70
     Davidson diagonalization with overlap
     ethr =  1.25E-04,  avg # of iterations =  3.6

     negative rho (up, down):  5.605E-03 0.000E+00

     total cpu time spent up to now is    10674.2 secs

     total energy              =   -2034.20404946 Ry
     estimated scf accuracy    <       1.25923457 Ry

     iteration #  7     ecut=    45.00 Ry     beta= 0.70
     Davidson diagonalization with overlap
     ethr =  1.25E-04,  avg # of iterations =  1.0

     negative rho (up, down):  5.656E-03 0.000E+00

     total cpu time spent up to now is    10701.8 secs

     total energy              =   -2034.20571642 Ry
     estimated scf accuracy    <       0.89249612 Ry

     iteration #  8     ecut=    45.00 Ry     beta= 0.70
     Davidson diagonalization with overlap
     ethr =  1.25E-04,  avg # of iterations =  1.1

     negative rho (up, down):  3.609E-03 0.000E+00

     total cpu time spent up to now is    10729.7 secs

     total energy              =   -2034.21038060 Ry
     estimated scf accuracy    <       0.22434529 Ry

     iteration #  9     ecut=    45.00 Ry     beta= 0.70
     Davidson diagonalization with overlap
     ethr =  1.25E-04,  avg # of iterations =  1.0

     negative rho (up, down):  2.558E-03 0.000E+00

     total cpu time spent up to now is    10757.9 secs

     total energy              =   -2034.21089191 Ry
     estimated scf accuracy    <       0.13545049 Ry

     iteration # 10     ecut=    45.00 Ry     beta= 0.70
     Davidson diagonalization with overlap
     ethr =  1.06E-04,  avg # of iterations =  1.0

     negative rho (up, down):  2.073E-03 0.000E+00

     total cpu time spent up to now is    10785.3 secs

     total energy              =   -2034.21154379 Ry
     estimated scf accuracy    <       0.05797841 Ry

     iteration # 11     ecut=    45.00 Ry     beta= 0.70
     Davidson diagonalization with overlap
     ethr =  4.53E-05,  avg # of iterations =  1.3

     negative rho (up, down):  2.504E-03 0.000E+00

     total cpu time spent up to now is    10815.9 secs

     total energy              =   -2034.20668230 Ry
     estimated scf accuracy    <       0.31914363 Ry

     iteration # 12     ecut=    45.00 Ry     beta= 0.70
     Davidson diagonalization with overlap
     ethr =  4.53E-05,  avg # of iterations =  1.0

     negative rho (up, down):  1.812E-03 0.000E+00

     total cpu time spent up to now is    10847.9 secs

     total energy              =   -2034.21306616 Ry
     estimated scf accuracy    <       0.03481554 Ry

     iteration # 13     ecut=    45.00 Ry     beta= 0.70
     Davidson diagonalization with overlap
     ethr =  2.72E-05,  avg # of iterations =  1.0

     negative rho (up, down):  1.547E-03 0.000E+00

     total cpu time spent up to now is    10877.4 secs

     total energy              =   -2034.21345290 Ry
     estimated scf accuracy    <       0.02985696 Ry

     iteration # 14     ecut=    45.00 Ry     beta= 0.70
     Davidson diagonalization with overlap
     ethr =  2.33E-05,  avg # of iterations =  1.0

     negative rho (up, down):  1.515E-03 0.000E+00

     total cpu time spent up to now is    10905.3 secs

     total energy              =   -2034.21332702 Ry
     estimated scf accuracy    <       0.02684526 Ry

     iteration # 15     ecut=    45.00 Ry     beta= 0.70
     Davidson diagonalization with overlap
     ethr =  2.10E-05,  avg # of iterations =  1.0

     negative rho (up, down):  1.947E-03 0.000E+00

     total cpu time spent up to now is    10937.4 secs

     total energy              =   -2034.21237982 Ry
     estimated scf accuracy    <       0.18025796 Ry

     iteration # 16     ecut=    45.00 Ry     beta= 0.70
     Davidson diagonalization with overlap
     ethr =  2.10E-05,  avg # of iterations =  1.0

     negative rho (up, down):  1.623E-03 0.000E+00

     total cpu time spent up to now is    10968.6 secs

     total energy              =   -2034.21331590 Ry
     estimated scf accuracy    <       0.02299458 Ry

     iteration # 17     ecut=    45.00 Ry     beta= 0.70
     Davidson diagonalization with overlap
     ethr =  1.80E-05,  avg # of iterations =  1.0

     negative rho (up, down):  1.605E-03 0.000E+00

     total cpu time spent up to now is    10997.5 secs

     total energy              =   -2034.21331755 Ry
     estimated scf accuracy    <       0.01957705 Ry

     iteration # 18     ecut=    45.00 Ry     beta= 0.70
     Davidson diagonalization with overlap
     ethr =  1.53E-05,  avg # of iterations =  1.0

     negative rho (up, down):  1.554E-03 0.000E+00

     total cpu time spent up to now is    11026.9 secs

     total energy              =   -2034.21335921 Ry
     estimated scf accuracy    <       0.01121450 Ry

     iteration # 19     ecut=    45.00 Ry     beta= 0.70
     Davidson diagonalization with overlap
     ethr =  8.76E-06,  avg # of iterations =  1.0

     negative rho (up, down):  1.648E-03 0.000E+00

     total cpu time spent up to now is    11054.4 secs

     total energy              =   -2034.21293805 Ry
     estimated scf accuracy    <       0.03159517 Ry

     iteration # 20     ecut=    45.00 Ry     beta= 0.70
     Davidson diagonalization with overlap
     ethr =  8.76E-06,  avg # of iterations =  1.1

     negative rho (up, down):  1.528E-03 0.000E+00

     total cpu time spent up to now is    11082.7 secs

     total energy              =   -2034.21351908 Ry
     estimated scf accuracy    <       0.01789122 Ry

     iteration # 21     ecut=    45.00 Ry     beta= 0.70
     Davidson diagonalization with overlap
     ethr =  8.76E-06,  avg # of iterations =  1.0

     negative rho (up, down):  1.497E-03 0.000E+00

     total cpu time spent up to now is    11110.6 secs

     total energy              =   -2034.21359634 Ry
     estimated scf accuracy    <       0.00061110 Ry

     iteration # 22     ecut=    45.00 Ry     beta= 0.70
     Davidson diagonalization with overlap
     ethr =  4.77E-07,  avg # of iterations =  3.0

     negative rho (up, down):  1.507E-03 0.000E+00

     total cpu time spent up to now is    11143.9 secs

     total energy              =   -2034.21357487 Ry
     estimated scf accuracy    <       0.00592613 Ry

     iteration # 23     ecut=    45.00 Ry     beta= 0.70
     Davidson diagonalization with overlap
     ethr =  4.77E-07,  avg # of iterations =  4.1

     negative rho (up, down):  1.530E-03 0.000E+00

     total cpu time spent up to now is    11180.4 secs

     total energy              =   -2034.21353141 Ry
     estimated scf accuracy    <       0.01984770 Ry

     iteration # 24     ecut=    45.00 Ry     beta= 0.70
     Davidson diagonalization with overlap
     ethr =  4.77E-07,  avg # of iterations =  2.3

     negative rho (up, down):  1.580E-03 0.000E+00

     total cpu time spent up to now is    11213.6 secs

     total energy              =   -2034.21344160 Ry
     estimated scf accuracy    <       0.04064069 Ry

     iteration # 25     ecut=    45.00 Ry     beta= 0.70
     Davidson diagonalization with overlap
     ethr =  4.77E-07,  avg # of iterations =  2.4

     negative rho (up, down):  1.530E-03 0.000E+00

     total cpu time spent up to now is    11244.2 secs

     total energy              =   -2034.21355459 Ry
     estimated scf accuracy    <       0.00818260 Ry

     iteration # 26     ecut=    45.00 Ry     beta= 0.70
     Davidson diagonalization with overlap
     ethr =  4.77E-07,  avg # of iterations =  2.5

     negative rho (up, down):  1.530E-03 0.000E+00

     total cpu time spent up to now is    11276.1 secs

     total energy              =   -2034.21351853 Ry
     estimated scf accuracy    <       0.00946341 Ry

     iteration # 27     ecut=    45.00 Ry     beta= 0.70
     Davidson diagonalization with overlap
     ethr =  4.77E-07,  avg # of iterations =  3.0

     negative rho (up, down):  1.575E-03 0.000E+00

     total cpu time spent up to now is    11309.9 secs

     total energy              =   -2034.21339478 Ry
     estimated scf accuracy    <       0.01670861 Ry

     iteration # 28     ecut=    45.00 Ry     beta= 0.70
     Davidson diagonalization with overlap
     ethr =  4.77E-07,  avg # of iterations =  2.8

     negative rho (up, down):  1.517E-03 0.000E+00

     total cpu time spent up to now is    11343.8 secs

     total energy              =   -2034.21360092 Ry
     estimated scf accuracy    <       0.00135978 Ry

     iteration # 29     ecut=    45.00 Ry     beta= 0.70
     Davidson diagonalization with overlap
     ethr =  4.77E-07,  avg # of iterations =  1.0

     negative rho (up, down):  1.508E-03 0.000E+00

     total cpu time spent up to now is    11371.3 secs

     total energy              =   -2034.21359658 Ry
     estimated scf accuracy    <       0.00156592 Ry

     iteration # 30     ecut=    45.00 Ry     beta= 0.70
     Davidson diagonalization with overlap
     ethr =  4.77E-07,  avg # of iterations =  1.1

     negative rho (up, down):  1.505E-03 0.000E+00

     total cpu time spent up to now is    11403.2 secs

     total energy              =   -2034.21358531 Ry
     estimated scf accuracy    <       0.00083548 Ry

     iteration # 31     ecut=    45.00 Ry     beta= 0.70
     Davidson diagonalization with overlap
     ethr =  4.77E-07,  avg # of iterations =  3.1

     negative rho (up, down):  1.605E-03 0.000E+00

     total cpu time spent up to now is    11438.5 secs

     total energy              =   -2034.21319912 Ry
     estimated scf accuracy    <       0.03465307 Ry

     iteration # 32     ecut=    45.00 Ry     beta= 0.70
     Davidson diagonalization with overlap
     ethr =  4.77E-07,  avg # of iterations =  2.9

     negative rho (up, down):  1.533E-03 0.000E+00

     total cpu time spent up to now is    11473.6 secs

     total energy              =   -2034.21360124 Ry
     estimated scf accuracy    <       0.00338364 Ry

     iteration # 33     ecut=    45.00 Ry     beta= 0.70
     Davidson diagonalization with overlap
     ethr =  4.77E-07,  avg # of iterations =  1.3

     negative rho (up, down):  1.510E-03 0.000E+00

     total cpu time spent up to now is    11502.5 secs

     total energy              =   -2034.21361909 Ry
     estimated scf accuracy    <       0.00221116 Ry

     iteration # 34     ecut=    45.00 Ry     beta= 0.70
     Davidson diagonalization with overlap
     ethr =  4.77E-07,  avg # of iterations =  1.0

     negative rho (up, down):  1.508E-03 0.000E+00

     total cpu time spent up to now is    11530.0 secs

     total energy              =   -2034.21361083 Ry
     estimated scf accuracy    <       0.00213450 Ry

     iteration # 35     ecut=    45.00 Ry     beta= 0.70
     Davidson diagonalization with overlap
     ethr =  4.77E-07,  avg # of iterations =  1.2

     negative rho (up, down):  1.533E-03 0.000E+00

     total cpu time spent up to now is    11559.1 secs

     total energy              =   -2034.21355236 Ry
     estimated scf accuracy    <       0.01144663 Ry

     iteration # 36     ecut=    45.00 Ry     beta= 0.70
     Davidson diagonalization with overlap
     ethr =  4.77E-07,  avg # of iterations =  1.0

     negative rho (up, down):  1.510E-03 0.000E+00

     total cpu time spent up to now is    11587.2 secs

     total energy              =   -2034.21361041 Ry
     estimated scf accuracy    <       0.00153546 Ry

     iteration # 37     ecut=    45.00 Ry     beta= 0.70
     Davidson diagonalization with overlap
     ethr =  4.77E-07,  avg # of iterations =  1.0

     negative rho (up, down):  1.509E-03 0.000E+00

     total cpu time spent up to now is    11616.3 secs

     total energy              =   -2034.21361079 Ry
     estimated scf accuracy    <       0.00112465 Ry

     iteration # 38     ecut=    45.00 Ry     beta= 0.70
     Davidson diagonalization with overlap
     ethr =  4.77E-07,  avg # of iterations =  1.1

     negative rho (up, down):  1.505E-03 0.000E+00

     total cpu time spent up to now is    11648.3 secs

     total energy              =   -2034.21361664 Ry
     estimated scf accuracy    <       0.00042973 Ry

     iteration # 39     ecut=    45.00 Ry     beta= 0.70
     Davidson diagonalization with overlap
     ethr =  3.36E-07,  avg # of iterations =  1.0

     negative rho (up, down):  1.511E-03 0.000E+00

     total cpu time spent up to now is    11676.0 secs

     total energy              =   -2034.21358790 Ry
     estimated scf accuracy    <       0.00176174 Ry

     iteration # 40     ecut=    45.00 Ry     beta= 0.70
     Davidson diagonalization with overlap
     ethr =  3.36E-07,  avg # of iterations =  1.7

     negative rho (up, down):  1.505E-03 0.000E+00

     total cpu time spent up to now is    11706.9 secs

     total energy              =   -2034.21362376 Ry
     estimated scf accuracy    <       0.00056075 Ry

     iteration # 41     ecut=    45.00 Ry     beta= 0.70
     Davidson diagonalization with overlap
     ethr =  3.36E-07,  avg # of iterations =  1.1

     negative rho (up, down):  1.503E-03 0.000E+00

     total cpu time spent up to now is    11735.1 secs

     total energy              =   -2034.21362792 Ry
     estimated scf accuracy    <       0.00006172 Ry

     iteration # 42     ecut=    45.00 Ry     beta= 0.70
     Davidson diagonalization with overlap
     ethr =  4.82E-08,  avg # of iterations =  1.6

     negative rho (up, down):  1.503E-03 0.000E+00

     total cpu time spent up to now is    11769.2 secs

     total energy              =   -2034.21362576 Ry
     estimated scf accuracy    <       0.00031459 Ry

     iteration # 43     ecut=    45.00 Ry     beta= 0.70
     Davidson diagonalization with overlap
     ethr =  4.82E-08,  avg # of iterations =  2.7

     negative rho (up, down):  1.506E-03 0.000E+00

     total cpu time spent up to now is    11802.9 secs

     total energy              =   -2034.21361452 Ry
     estimated scf accuracy    <       0.00167273 Ry

     iteration # 44     ecut=    45.00 Ry     beta= 0.70
     Davidson diagonalization with overlap
     ethr =  4.82E-08,  avg # of iterations =  3.8

     negative rho (up, down):  1.579E-03 0.000E+00

     total cpu time spent up to now is    11838.8 secs

     total energy              =   -2034.21350729 Ry
     estimated scf accuracy    <       0.03914497 Ry

     iteration # 45     ecut=    45.00 Ry     beta= 0.70
     Davidson diagonalization with overlap
     ethr =  4.82E-08,  avg # of iterations =  3.8

     negative rho (up, down):  1.518E-03 0.000E+00

     total cpu time spent up to now is    11874.3 secs

     total energy              =   -2034.21361583 Ry
     estimated scf accuracy    <       0.00136384 Ry

     iteration # 46     ecut=    45.00 Ry     beta= 0.70
     Davidson diagonalization with overlap
     ethr =  4.82E-08,  avg # of iterations =  2.6

     negative rho (up, down):  1.513E-03 0.000E+00

     total cpu time spent up to now is    11907.1 secs

     total energy              =   -2034.21359951 Ry
     estimated scf accuracy    <       0.00348734 Ry

     iteration # 47     ecut=    45.00 Ry     beta= 0.70
     Davidson diagonalization with overlap
     ethr =  4.82E-08,  avg # of iterations =  3.2

     negative rho (up, down):  1.513E-03 0.000E+00

     total cpu time spent up to now is    11942.7 secs

     total energy              =   -2034.21360031 Ry
     estimated scf accuracy    <       0.00252998 Ry

     iteration # 48     ecut=    45.00 Ry     beta= 0.70
     Davidson diagonalization with overlap
     ethr =  4.82E-08,  avg # of iterations =  2.8

     negative rho (up, down):  1.505E-03 0.000E+00

     total cpu time spent up to now is    11976.0 secs

     total energy              =   -2034.21362790 Ry
     estimated scf accuracy    <       0.00004440 Ry

     iteration # 49     ecut=    45.00 Ry     beta= 0.70
     Davidson diagonalization with overlap
     ethr =  3.47E-08,  avg # of iterations =  1.0

     negative rho (up, down):  1.503E-03 0.000E+00

     total cpu time spent up to now is    12003.5 secs

     total energy              =   -2034.21362770 Ry
     estimated scf accuracy    <       0.00008971 Ry

     iteration # 50     ecut=    45.00 Ry     beta= 0.70
     Davidson diagonalization with overlap
     ethr =  3.47E-08,  avg # of iterations =  1.0

     negative rho (up, down):  1.503E-03 0.000E+00

     total cpu time spent up to now is    12032.8 secs

     total energy              =   -2034.21362903 Ry
     estimated scf accuracy    <       0.00001105 Ry

     iteration # 51     ecut=    45.00 Ry     beta= 0.70
     Davidson diagonalization with overlap
     ethr =  8.64E-09,  avg # of iterations =  2.7

     negative rho (up, down):  1.503E-03 0.000E+00

     total cpu time spent up to now is    12069.0 secs

     total energy              =   -2034.21362771 Ry
     estimated scf accuracy    <       0.00026133 Ry

     iteration # 52     ecut=    45.00 Ry     beta= 0.70
     Davidson diagonalization with overlap
     ethr =  8.64E-09,  avg # of iterations =  2.3

     negative rho (up, down):  1.503E-03 0.000E+00

     total cpu time spent up to now is    12102.2 secs

     total energy              =   -2034.21362950 Ry
     estimated scf accuracy    <       0.00000394 Ry

     iteration # 53     ecut=    45.00 Ry     beta= 0.70
     Davidson diagonalization with overlap
     ethr =  3.08E-09,  avg # of iterations =  1.4

     negative rho (up, down):  1.503E-03 0.000E+00

     total cpu time spent up to now is    12131.0 secs

     total energy              =   -2034.21362953 Ry
     estimated scf accuracy    <       0.00000631 Ry

     iteration # 54     ecut=    45.00 Ry     beta= 0.70
     Davidson diagonalization with overlap
     ethr =  3.08E-09,  avg # of iterations =  1.2

     negative rho (up, down):  1.503E-03 0.000E+00

     total cpu time spent up to now is    12159.3 secs

     total energy              =   -2034.21362952 Ry
     estimated scf accuracy    <       0.00002177 Ry

     iteration # 55     ecut=    45.00 Ry     beta= 0.70
     Davidson diagonalization with overlap
     ethr =  3.08E-09,  avg # of iterations =  1.0

     negative rho (up, down):  1.503E-03 0.000E+00

     total cpu time spent up to now is    12186.7 secs

     total energy              =   -2034.21362958 Ry
     estimated scf accuracy    <       0.00000148 Ry

     iteration # 56     ecut=    45.00 Ry     beta= 0.70
     Davidson diagonalization with overlap
     ethr =  1.16E-09,  avg # of iterations =  1.0

     negative rho (up, down):  1.503E-03 0.000E+00

     total cpu time spent up to now is    12214.1 secs

     total energy              =   -2034.21362959 Ry
     estimated scf accuracy    <       0.00000004 Ry

     iteration # 57     ecut=    45.00 Ry     beta= 0.70
     Davidson diagonalization with overlap
     ethr =  3.27E-11,  avg # of iterations =  5.1

     negative rho (up, down):  1.503E-03 0.000E+00

     total cpu time spent up to now is    12253.0 secs

     total energy              =   -2034.21362951 Ry
     estimated scf accuracy    <       0.00000617 Ry

     iteration # 58     ecut=    45.00 Ry     beta= 0.70
     Davidson diagonalization with overlap
     ethr =  3.27E-11,  avg # of iterations =  4.6

     negative rho (up, down):  1.503E-03 0.000E+00

     total cpu time spent up to now is    12291.4 secs

     total energy              =   -2034.21362958 Ry
     estimated scf accuracy    <       0.00000085 Ry

     iteration # 59     ecut=    45.00 Ry     beta= 0.70
     Davidson diagonalization with overlap
     ethr =  3.27E-11,  avg # of iterations =  4.3

     negative rho (up, down):  1.503E-03 0.000E+00

     total cpu time spent up to now is    12329.5 secs

     total energy              =   -2034.21362953 Ry
     estimated scf accuracy    <       0.00000319 Ry

     iteration # 60     ecut=    45.00 Ry     beta= 0.70
     Davidson diagonalization with overlap
     ethr =  3.27E-11,  avg # of iterations =  4.4

     negative rho (up, down):  1.503E-03 0.000E+00

     total cpu time spent up to now is    12367.4 secs

     total energy              =   -2034.21362959 Ry
     estimated scf accuracy    <       0.00000031 Ry

     iteration # 61     ecut=    45.00 Ry     beta= 0.70
     Davidson diagonalization with overlap
     ethr =  3.27E-11,  avg # of iterations =  2.3

     negative rho (up, down):  1.503E-03 0.000E+00

     total cpu time spent up to now is    12400.3 secs

     total energy              =   -2034.21362959 Ry
     estimated scf accuracy    <       0.00000013 Ry

     iteration # 62     ecut=    45.00 Ry     beta= 0.70
     Davidson diagonalization with overlap
     ethr =  3.27E-11,  avg # of iterations =  1.8

     negative rho (up, down):  1.503E-03 0.000E+00

     total cpu time spent up to now is    12432.8 secs

     total energy              =   -2034.21362959 Ry
     estimated scf accuracy    <       0.00000031 Ry

     iteration # 63     ecut=    45.00 Ry     beta= 0.70
     Davidson diagonalization with overlap
     ethr =  3.27E-11,  avg # of iterations =  2.0

     negative rho (up, down):  1.503E-03 0.000E+00

     total cpu time spent up to now is    12465.1 secs

     total energy              =   -2034.21362959 Ry
     estimated scf accuracy    <       0.00000008 Ry

     iteration # 64     ecut=    45.00 Ry     beta= 0.70
     Davidson diagonalization with overlap
     ethr =  3.27E-11,  avg # of iterations =  1.0

     negative rho (up, down):  1.503E-03 0.000E+00

     total cpu time spent up to now is    12492.4 secs

     End of self-consistent calculation

          k = 0.0000 0.0000 0.0000 (  6457 PWs)   bands (ev):

   -80.5119 -80.4618 -80.4460 -80.4042 -80.3643 -80.3511 -80.1856 -80.0336
   -46.6031 -46.6031 -46.5565 -46.5390 -46.5390 -46.5362 -46.5174 -46.4936
   -46.4936 -46.4563 -46.4184 -46.4184 -46.3832 -46.3379 -46.3379 -46.3066
   -46.2973 -46.2973 -46.2000 -46.1855 -46.1855 -46.0781 -46.0442 -46.0442
    -1.5080  -0.7543   0.4678   1.8355   2.6364   2.7323   2.8158   2.9596
     3.1706   3.3313   3.5402   4.2959   5.0006   5.0666   5.0666   5.0839
     5.1087   5.1087   5.2378   5.2378   5.2483   5.4880   5.4880   5.6190
     5.7680   5.8798   5.8798   6.1045   6.1154   6.2286   6.2727   6.4025
     6.4025   6.5260   6.6255   6.6476   6.8503   6.9473   6.9473   7.0471
     7.2889   7.3432   7.3432   7.3514   7.5022

          k = 0.0000 0.2500 0.0000 (  6508 PWs)   bands (ev):

   -80.5013 -80.4467 -80.4374 -80.4025 -80.3701 -80.3627 -80.1881 -80.0326
   -46.6567 -46.6056 -46.5915 -46.5714 -46.5686 -46.5320 -46.5048 -46.5034
   -46.4782 -46.4486 -46.4307 -46.4192 -46.3624 -46.3556 -46.3505 -46.3315
   -46.3078 -46.2875 -46.2079 -46.1980 -46.1900 -46.0730 -46.0659 -46.0502
    -0.3027   0.3664   1.3763   2.3407   2.9624   2.9918   3.1436   3.2435
     3.4435   3.6578   4.1809   4.3398   4.4587   4.6260   4.7002   4.7255
     4.9355   4.9832   5.0484   5.0738   5.2401   5.4295   5.5727   5.7156
     5.7800   6.0932   6.1471   6.1588   6.2590   6.2710   6.3040   6.4126
     6.4960   6.5273   6.6125   6.7011   6.7772   6.8762   6.9035   6.9885
     7.2657   7.4145   7.5301   7.6100   7.6166

          k = 0.0000-0.5000 0.0000 (  6560 PWs)   bands (ev):

   -80.4902 -80.4305 -80.4183 -80.4027 -80.3807 -80.3793 -80.1906 -80.0315
   -46.7006 -46.6519 -46.6217 -46.6087 -46.5524 -46.5474 -46.5353 -46.4552
   -46.4511 -46.4377 -46.4250 -46.4238 -46.3947 -46.3875 -46.3544 -46.3479
   -46.2975 -46.2941 -46.2309 -46.2032 -46.1826 -46.0863 -46.0686 -46.0560
     2.1717   2.2503   2.3588   2.3627   2.3818   2.5184   3.1170   3.4158
     3.9498   4.0433   4.2868   4.3418   4.4083   4.5413   4.5922   4.7868
     4.8445   4.8505   5.3358   5.3689   5.4182   5.5922   5.6317   5.7202
     6.0074   6.0304   6.2826   6.3642   6.4937   6.5015   6.5076   6.5119
     6.5974   6.6222   7.0399   7.0547   7.4599   7.4839   7.5400   7.6106
     7.6338   7.6511   7.6772   7.7235   7.7681

          k = 0.2500 0.0000 0.0000 (  6508 PWs)   bands (ev):

   -80.5013 -80.4467 -80.4374 -80.4025 -80.3701 -80.3627 -80.1881 -80.0326
   -46.6567 -46.6056 -46.5915 -46.5714 -46.5686 -46.5320 -46.5048 -46.5034
   -46.4782 -46.4486 -46.4307 -46.4192 -46.3624 -46.3556 -46.3505 -46.3315
   -46.3078 -46.2875 -46.2079 -46.1980 -46.1900 -46.0730 -46.0659 -46.0502
    -0.3027   0.3664   1.3763   2.3407   2.9624   2.9918   3.1436   3.2435
     3.4435   3.6578   4.1809   4.3398   4.4587   4.6260   4.7002   4.7255
     4.9355   4.9832   5.0484   5.0738   5.2401   5.4295   5.5727   5.7156
     5.7800   6.0932   6.1471   6.1588   6.2590   6.2710   6.3040   6.4126
     6.4960   6.5273   6.6125   6.7011   6.7772   6.8762   6.9035   6.9885
     7.2657   7.4145   7.5301   7.6100   7.6166

          k = 0.2500 0.2500 0.0000 (  6498 PWs)   bands (ev):

   -80.4946 -80.4369 -80.4302 -80.4005 -80.3727 -80.3693 -80.1882 -80.0309
   -46.6501 -46.6317 -46.5861 -46.5852 -46.5623 -46.5548 -46.5313 -46.5162
   -46.5108 -46.4656 -46.4429 -46.3964 -46.3654 -46.3522 -46.3429 -46.3236
   -46.3191 -46.3027 -46.2280 -46.1956 -46.1859 -46.0804 -46.0645 -46.0640
     0.7555   1.3972   2.3326   3.0874   3.3403   3.5476   3.6008   3.7940
     3.8038   3.8962   3.9227   4.0572   4.1237   4.2034   4.3364   4.3450
     4.4559   4.4731   4.5485   4.7126   4.8042   5.0773   5.6736   5.6998
     5.8663   5.9905   6.2442   6.3901   6.4776   6.4953   6.5282   6.5635
     6.6065   6.6291   6.7305   6.8092   6.8140   6.8533   6.9248   7.0241
     7.1261   7.4676   7.4793   8.2709   9.2503

          k = 0.2500-0.5000 0.0000 (  6510 PWs)   bands (ev):

   -80.4878 -80.4282 -80.4160 -80.4004 -80.3784 -80.3770 -80.1883 -80.0293
   -46.6884 -46.6356 -46.6064 -46.6020 -46.5910 -46.5849 -46.5814 -46.4884
   -46.4727 -46.4462 -46.4287 -46.4188 -46.3948 -46.3656 -46.3249 -46.3242
   -46.3220 -46.3140 -46.2379 -46.2084 -46.1792 -46.0852 -46.0832 -46.0607
     2.5721   2.6442   2.9820   2.9930   3.0761   3.2179   3.5058   3.6174
     3.8845   3.9177   4.0101   4.1468   4.2027   4.2791   4.4864   4.5039
     4.5295   4.6832   4.7085   4.7607   5.1854   5.2530   5.6205   5.8602
     6.1189   6.2745   6.3057   6.4120   6.4709   6.4886   6.5917   6.6089
     6.7084   6.7454   6.8295   6.8413   6.9148   6.9164   7.0929   7.1053
     8.0132   8.0449   8.7867   8.7915   9.7098

          k = 0.2500-0.2500 0.0000 (  6498 PWs)   bands (ev):

   -80.4946 -80.4369 -80.4302 -80.4005 -80.3727 -80.3693 -80.1882 -80.0309
   -46.6501 -46.6317 -46.5861 -46.5852 -46.5623 -46.5548 -46.5313 -46.5162
   -46.5108 -46.4656 -46.4429 -46.3964 -46.3654 -46.3522 -46.3429 -46.3236
   -46.3191 -46.3027 -46.2280 -46.1956 -46.1859 -46.0804 -46.0645 -46.0640
     0.7555   1.3972   2.3326   3.0874   3.3403   3.5476   3.6008   3.7940
     3.8038   3.8962   3.9227   4.0572   4.1237   4.2034   4.3364   4.3450
     4.4559   4.4731   4.5485   4.7126   4.8042   5.0773   5.6736   5.6998
     5.8663   5.9905   6.2442   6.3901   6.4776   6.4953   6.5282   6.5635
     6.6065   6.6291   6.7305   6.8092   6.8140   6.8533   6.9248   7.0241
     7.1261   7.4676   7.4793   8.2709   9.2503

          k =-0.5000 0.0000 0.0000 (  6560 PWs)   bands (ev):

   -80.4902 -80.4305 -80.4183 -80.4027 -80.3807 -80.3793 -80.1906 -80.0315
   -46.7006 -46.6519 -46.6217 -46.6087 -46.5524 -46.5474 -46.5353 -46.4552
   -46.4511 -46.4377 -46.4250 -46.4238 -46.3947 -46.3875 -46.3544 -46.3479
   -46.2975 -46.2941 -46.2309 -46.2032 -46.1826 -46.0863 -46.0686 -46.0560
     2.1717   2.2503   2.3588   2.3627   2.3818   2.5184   3.1170   3.4158
     3.9498   4.0433   4.2868   4.3418   4.4083   4.5413   4.5922   4.7868
     4.8445   4.8505   5.3358   5.3689   5.4182   5.5922   5.6317   5.7202
     6.0074   6.0304   6.2826   6.3642   6.4937   6.5015   6.5076   6.5119
     6.5974   6.6222   7.0399   7.0547   7.4599   7.4839   7.5400   7.6106
     7.6338   7.6511   7.6772   7.7235   7.7681

          k =-0.5000 0.2500 0.0000 (  6510 PWs)   bands (ev):

   -80.4878 -80.4282 -80.4160 -80.4004 -80.3784 -80.3770 -80.1883 -80.0293
   -46.6884 -46.6356 -46.6064 -46.6020 -46.5910 -46.5849 -46.5814 -46.4884
   -46.4727 -46.4462 -46.4287 -46.4188 -46.3948 -46.3656 -46.3249 -46.3242
   -46.3220 -46.3140 -46.2379 -46.2084 -46.1792 -46.0852 -46.0832 -46.0607
     2.5721   2.6442   2.9820   2.9930   3.0761   3.2179   3.5058   3.6174
     3.8845   3.9177   4.0101   4.1468   4.2027   4.2791   4.4864   4.5039
     4.5295   4.6832   4.7085   4.7607   5.1854   5.2530   5.6205   5.8602
     6.1189   6.2745   6.3057   6.4120   6.4709   6.4886   6.5917   6.6089
     6.7084   6.7454   6.8295   6.8413   6.9148   6.9164   7.0929   7.1053
     8.0132   8.0449   8.7867   8.7915   9.7099

          k =-0.5000-0.5000 0.0000 (  6576 PWs)   bands (ev):

   -80.4856 -80.4261 -80.4139 -80.3983 -80.3763 -80.3749 -80.1861 -80.0272
   -46.7040 -46.7040 -46.6379 -46.6379 -46.5712 -46.5712 -46.4814 -46.4706
   -46.4706 -46.4549 -46.4436 -46.4413 -46.4169 -46.4140 -46.3661 -46.3661
   -46.3071 -46.3071 -46.2212 -46.2035 -46.2035 -46.0851 -46.0851 -46.0836
     2.4087   2.4808   2.9038   2.9834   3.6016   3.6181   3.8563   3.8563
     3.9018   3.9018   3.9590   3.9590   4.1398   4.1398   4.2188   4.3605
     4.4423   4.4423   4.9949   4.9949   5.8488   5.8488   6.3500   6.5266
     6.6062   6.6152   6.6480   6.6926   6.7492   6.7631   6.7712   6.7731
     6.7851   6.8097   6.8146   6.8341   6.9476   7.1273   7.1273   7.1423
     8.1021   8.1021   9.7866   9.7866  11.6133

     the Fermi energy is     6.6095 ev

!    total energy              =   -2034.21362959 Ry
     estimated scf accuracy    <          4.7E-09 Ry
     smearing contrib. (-TS)   =      -0.01749320 Ry
     internal energy E=F+TS    =   -2034.19613639 Ry

     The total energy is F=E-TS. E is the sum of the following terms:
     one-electron contribution =  -13988.87720368 Ry
     hartree contribution      =    7018.14728451 Ry
     xc contribution           =    -277.17324641 Ry
     ewald contribution        =    5213.70702919 Ry

     convergence has been achieved in  64 iterations

     negative rho (up, down):  1.503E-03 0.000E+00

     Forces acting on atoms (cartesian axes, Ry/au):

     atom    1 type  1   force =     0.00000000    0.00000000   -0.03194848
     atom    2 type  1   force =     0.00000000    0.00000000    0.06403925
     atom    3 type  1   force =     0.00000000   -0.00000000    0.01328008
     atom    4 type  1   force =    -0.00000000    0.00000000    0.00225380
     atom    5 type  1   force =     0.00000000    0.00000000    0.00103656
     atom    6 type  1   force =    -0.00000000   -0.00000000   -0.01362356
     atom    7 type  1   force =     0.00000000   -0.00000000   -0.05065225
     atom    8 type  1   force =    -0.00000001   -0.00000001    0.01561458

     Total force =     0.050652     Total SCF correction =     0.000214
     Energy error            =      8.7E-03
     Gradient error          =      5.1E-02

     number of scf cycles    =   5
     number of bfgs steps    =   4

     energy   old            =   -2034.2049076482 Ry
     energy   new            =   -2034.2136295907 Ry

     CASE: energy  _new < energy  _old

     new trust radius        =       0.2396104104 bohr
     new conv_thr            =       0.0000000051 Ry


ATOMIC_POSITIONS (angstrom)
Fe            0.0000000000        0.0000000000        2.1525000000    0   0   0
Fe            1.4350000000        1.4350000000        0.7175000000    0   0   0
Fe            0.0000000000        0.0000000000        5.0225000000    0   0   0
Fe            1.4350000000        1.4350000000        3.5875000000    0   0   0
Fe            0.0000000000        0.0000000000        7.8925000000    0   0   0
Fe            1.4350000000        1.4350000000        6.4575000000    0   0   0
Fe           -0.0000000274       -0.0000000131       10.4230955787
Fe            1.4350000000        1.4350000000        9.3275000000    0   0   0



     Writing output data file ./tmp/fe_clean_fe_surface.save/
     NEW-OLD atomic charge density approx. for the potential

     Check: negative core charge=   -0.000078

     negative rho (up, down):  1.598E-03 0.000E+00

     total cpu time spent up to now is    12504.1 secs

     Self-consistent Calculation

     iteration #  1     ecut=    45.00 Ry     beta= 0.70
     Davidson diagonalization with overlap
     ethr =  1.00E-06,  avg # of iterations = 12.8

     negative rho (up, down):  1.576E-03 0.000E+00

     total cpu time spent up to now is    12634.1 secs

     total energy              =   -2033.91993666 Ry
     estimated scf accuracy    <       0.35061762 Ry

     iteration #  2     ecut=    45.00 Ry     beta= 0.70
     Davidson diagonalization with overlap
     ethr =  2.74E-04,  avg # of iterations = 10.9

     negative rho (up, down):  1.653E-02 0.000E+00

     total cpu time spent up to now is    12699.7 secs

     total energy              =   -2029.62606605 Ry
     estimated scf accuracy    <     606.02143497 Ry

     iteration #  3     ecut=    45.00 Ry     beta= 0.70
     Davidson diagonalization with overlap
     ethr =  2.74E-04,  avg # of iterations =  9.7

     negative rho (up, down):  1.087E-02 0.000E+00

     total cpu time spent up to now is    12775.3 secs

     total energy              =   -2032.84767794 Ry
     estimated scf accuracy    <     207.21819627 Ry

     iteration #  4     ecut=    45.00 Ry     beta= 0.70
     Davidson diagonalization with overlap
     ethr =  2.74E-04,  avg # of iterations =  7.0

     negative rho (up, down):  8.344E-03 0.000E+00

     total cpu time spent up to now is    12829.3 secs

     total energy              =   -2033.83491658 Ry
     estimated scf accuracy    <      38.19538899 Ry

     iteration #  5     ecut=    45.00 Ry     beta= 0.70
     Davidson diagonalization with overlap
     ethr =  2.74E-04,  avg # of iterations =  4.1

     negative rho (up, down):  1.223E-02 0.000E+00

     total cpu time spent up to now is    12866.3 secs

     total energy              =   -2034.09681041 Ry
     estimated scf accuracy    <      26.89908111 Ry

     iteration #  6     ecut=    45.00 Ry     beta= 0.70
     Davidson diagonalization with overlap
     ethr =  2.74E-04,  avg # of iterations =  3.1

     negative rho (up, down):  6.811E-03 0.000E+00

     total cpu time spent up to now is    12900.2 secs

     total energy              =   -2034.18406807 Ry
     estimated scf accuracy    <       8.29536899 Ry

     iteration #  7     ecut=    45.00 Ry     beta= 0.70
     Davidson diagonalization with overlap
     ethr =  2.74E-04,  avg # of iterations =  1.5

     negative rho (up, down):  7.148E-03 0.000E+00

     total cpu time spent up to now is    12930.6 secs

     total energy              =   -2034.19327519 Ry
     estimated scf accuracy    <       4.33597967 Ry

     iteration #  8     ecut=    45.00 Ry     beta= 0.70
     Davidson diagonalization with overlap
     ethr =  2.74E-04,  avg # of iterations =  1.1

     negative rho (up, down):  4.553E-03 0.000E+00

     total cpu time spent up to now is    12958.8 secs

     total energy              =   -2034.21317326 Ry
     estimated scf accuracy    <       0.85720237 Ry

     iteration #  9     ecut=    45.00 Ry     beta= 0.70
     Davidson diagonalization with overlap
     ethr =  2.74E-04,  avg # of iterations =  1.0

     negative rho (up, down):  3.267E-03 0.000E+00

     total cpu time spent up to now is    12986.9 secs

     total energy              =   -2034.21627158 Ry
     estimated scf accuracy    <       0.30688194 Ry

     iteration # 10     ecut=    45.00 Ry     beta= 0.70
     Davidson diagonalization with overlap
     ethr =  2.40E-04,  avg # of iterations =  1.0

     negative rho (up, down):  5.193E-03 0.000E+00

     total cpu time spent up to now is    13014.7 secs

     total energy              =   -2034.21046301 Ry
     estimated scf accuracy    <       0.11727323 Ry

     iteration # 11     ecut=    45.00 Ry     beta= 0.70
     Davidson diagonalization with overlap
     ethr =  9.16E-05,  avg # of iterations =  2.8

     negative rho (up, down):  3.370E-03 0.000E+00

     total cpu time spent up to now is    13045.7 secs

     total energy              =   -2034.20986733 Ry
     estimated scf accuracy    <       1.11348412 Ry

     iteration # 12     ecut=    45.00 Ry     beta= 0.70
     Davidson diagonalization with overlap
     ethr =  9.16E-05,  avg # of iterations =  1.1

     negative rho (up, down):  1.718E-03 0.000E+00

     total cpu time spent up to now is    13073.8 secs

     total energy              =   -2034.22047517 Ry
     estimated scf accuracy    <       0.03597642 Ry

     iteration # 13     ecut=    45.00 Ry     beta= 0.70
     Davidson diagonalization with overlap
     ethr =  2.81E-05,  avg # of iterations =  1.4

     negative rho (up, down):  1.598E-03 0.000E+00

     total cpu time spent up to now is    13102.7 secs

     total energy              =   -2034.22101861 Ry
     estimated scf accuracy    <       0.07055571 Ry

     iteration # 14     ecut=    45.00 Ry     beta= 0.70
     Davidson diagonalization with overlap
     ethr =  2.81E-05,  avg # of iterations =  1.0

     negative rho (up, down):  1.479E-03 0.000E+00

     total cpu time spent up to now is    13131.8 secs

     total energy              =   -2034.22107463 Ry
     estimated scf accuracy    <       0.00798525 Ry

     iteration # 15     ecut=    45.00 Ry     beta= 0.70
     Davidson diagonalization with overlap
     ethr =  6.24E-06,  avg # of iterations =  4.2

     negative rho (up, down):  2.444E-03 0.000E+00

     total cpu time spent up to now is    13165.3 secs

     total energy              =   -2034.22053262 Ry
     estimated scf accuracy    <       0.37828015 Ry

     iteration # 16     ecut=    45.00 Ry     beta= 0.70
     Davidson diagonalization with overlap
     ethr =  6.24E-06,  avg # of iterations =  2.0

     negative rho (up, down):  1.853E-03 0.000E+00

     total cpu time spent up to now is    13194.9 secs

     total energy              =   -2034.22215152 Ry
     estimated scf accuracy    <       0.00823220 Ry

     iteration # 17     ecut=    45.00 Ry     beta= 0.70
     Davidson diagonalization with overlap
     ethr =  6.24E-06,  avg # of iterations =  1.0

     negative rho (up, down):  1.912E-03 0.000E+00

     total cpu time spent up to now is    13222.3 secs

     total energy              =   -2034.22191384 Ry
     estimated scf accuracy    <       0.00805778 Ry

     iteration # 18     ecut=    45.00 Ry     beta= 0.70
     Davidson diagonalization with overlap
     ethr =  6.24E-06,  avg # of iterations =  1.0

     negative rho (up, down):  2.133E-03 0.000E+00

     total cpu time spent up to now is    13249.6 secs

     total energy              =   -2034.22039289 Ry
     estimated scf accuracy    <       0.09102399 Ry

     iteration # 19     ecut=    45.00 Ry     beta= 0.70
     Davidson diagonalization with overlap
     ethr =  6.24E-06,  avg # of iterations =  3.8

     negative rho (up, down):  3.000E-03 0.000E+00

     total cpu time spent up to now is    13284.7 secs

     total energy              =   -2034.21615935 Ry
     estimated scf accuracy    <       0.39329835 Ry

     iteration # 20     ecut=    45.00 Ry     beta= 0.70
     Davidson diagonalization with overlap
     ethr =  6.24E-06,  avg # of iterations =  2.9

     negative rho (up, down):  1.778E-03 0.000E+00

     total cpu time spent up to now is    13318.7 secs

     total energy              =   -2034.22211937 Ry
     estimated scf accuracy    <       0.01092618 Ry

     iteration # 21     ecut=    45.00 Ry     beta= 0.70
     Davidson diagonalization with overlap
     ethr =  6.24E-06,  avg # of iterations =  1.1

     negative rho (up, down):  1.722E-03 0.000E+00

     total cpu time spent up to now is    13349.9 secs

     total energy              =   -2034.22217377 Ry
     estimated scf accuracy    <       0.01164317 Ry

     iteration # 22     ecut=    45.00 Ry     beta= 0.70
     Davidson diagonalization with overlap
     ethr =  6.24E-06,  avg # of iterations =  1.0

     negative rho (up, down):  1.788E-03 0.000E+00

     total cpu time spent up to now is    13379.8 secs

     total energy              =   -2034.22135652 Ry
     estimated scf accuracy    <       0.02521855 Ry

     iteration # 23     ecut=    45.00 Ry     beta= 0.70
     Davidson diagonalization with overlap
     ethr =  6.24E-06,  avg # of iterations =  5.3

     negative rho (up, down):  7.610E-03 0.000E+00

     total cpu time spent up to now is    13423.1 secs

     total energy              =   -2034.19976704 Ry
     estimated scf accuracy    <       6.97737486 Ry

     iteration # 24     ecut=    45.00 Ry     beta= 0.70
     Davidson diagonalization with overlap
     ethr =  6.24E-06,  avg # of iterations =  4.1

     negative rho (up, down):  2.183E-03 0.000E+00

     total cpu time spent up to now is    13462.9 secs

     total energy              =   -2034.22138907 Ry
     estimated scf accuracy    <       0.05032405 Ry

     iteration # 25     ecut=    45.00 Ry     beta= 0.70
     Davidson diagonalization with overlap
     ethr =  6.24E-06,  avg # of iterations =  4.8

     negative rho (up, down):  5.219E-03 0.000E+00

     total cpu time spent up to now is    13498.1 secs

     total energy              =   -2034.21143704 Ry
     estimated scf accuracy    <       2.05228902 Ry

     iteration # 26     ecut=    45.00 Ry     beta= 0.70
     Davidson diagonalization with overlap
     ethr =  6.24E-06,  avg # of iterations =  4.4

     negative rho (up, down):  2.089E-03 0.000E+00

     total cpu time spent up to now is    13532.4 secs

     total energy              =   -2034.22199338 Ry
     estimated scf accuracy    <       0.00098372 Ry

     iteration # 27     ecut=    45.00 Ry     beta= 0.70
     Davidson diagonalization with overlap
     ethr =  7.69E-07,  avg # of iterations =  3.9

     negative rho (up, down):  1.837E-03 0.000E+00

     total cpu time spent up to now is    13569.7 secs

     total energy              =   -2034.22129076 Ry
     estimated scf accuracy    <       0.07106604 Ry

     iteration # 28     ecut=    45.00 Ry     beta= 0.70
     Davidson diagonalization with overlap
     ethr =  7.69E-07,  avg # of iterations =  2.9

     negative rho (up, down):  1.554E-03 0.000E+00

     total cpu time spent up to now is    13603.8 secs

     total energy              =   -2034.22209409 Ry
     estimated scf accuracy    <       0.00099468 Ry

     iteration # 29     ecut=    45.00 Ry     beta= 0.70
     Davidson diagonalization with overlap
     ethr =  7.69E-07,  avg # of iterations =  3.7

     negative rho (up, down):  1.692E-03 0.000E+00

     total cpu time spent up to now is    13639.1 secs

     total energy              =   -2034.22159262 Ry
     estimated scf accuracy    <       0.02978454 Ry

     iteration # 30     ecut=    45.00 Ry     beta= 0.70
     Davidson diagonalization with overlap
     ethr =  7.69E-07,  avg # of iterations =  3.5

     negative rho (up, down):  1.551E-03 0.000E+00

     total cpu time spent up to now is    13674.0 secs

     total energy              =   -2034.22215494 Ry
     estimated scf accuracy    <       0.00179772 Ry

     iteration # 31     ecut=    45.00 Ry     beta= 0.70
     Davidson diagonalization with overlap
     ethr =  7.69E-07,  avg # of iterations =  1.0

     negative rho (up, down):  1.539E-03 0.000E+00

     total cpu time spent up to now is    13701.4 secs

     total energy              =   -2034.22217110 Ry
     estimated scf accuracy    <       0.00003225 Ry

     iteration # 32     ecut=    45.00 Ry     beta= 0.70
     Davidson diagonalization with overlap
     ethr =  2.52E-08,  avg # of iterations =  3.6

     negative rho (up, down):  1.541E-03 0.000E+00

     total cpu time spent up to now is    13735.6 secs

     total energy              =   -2034.22216548 Ry
     estimated scf accuracy    <       0.00011335 Ry

     iteration # 33     ecut=    45.00 Ry     beta= 0.70
     Davidson diagonalization with overlap
     ethr =  2.52E-08,  avg # of iterations =  5.0

     negative rho (up, down):  1.677E-03 0.000E+00

     total cpu time spent up to now is    13775.8 secs

     total energy              =   -2034.22189612 Ry
     estimated scf accuracy    <       0.07903004 Ry

     iteration # 34     ecut=    45.00 Ry     beta= 0.70
     Davidson diagonalization with overlap
     ethr =  2.52E-08,  avg # of iterations =  4.8

     negative rho (up, down):  1.557E-03 0.000E+00

     total cpu time spent up to now is    13815.6 secs

     total energy              =   -2034.22214741 Ry
     estimated scf accuracy    <       0.00259204 Ry

     iteration # 35     ecut=    45.00 Ry     beta= 0.70
     Davidson diagonalization with overlap
     ethr =  2.52E-08,  avg # of iterations =  4.3

     negative rho (up, down):  1.580E-03 0.000E+00

     total cpu time spent up to now is    13854.0 secs

     total energy              =   -2034.22210181 Ry
     estimated scf accuracy    <       0.01275536 Ry

     iteration # 36     ecut=    45.00 Ry     beta= 0.70
     Davidson diagonalization with overlap
     ethr =  2.52E-08,  avg # of iterations =  4.2

     negative rho (up, down):  1.545E-03 0.000E+00

     total cpu time spent up to now is    13893.7 secs

     total energy              =   -2034.22216865 Ry
     estimated scf accuracy    <       0.00024188 Ry

     iteration # 37     ecut=    45.00 Ry     beta= 0.70
     Davidson diagonalization with overlap
     ethr =  2.52E-08,  avg # of iterations =  3.3

     negative rho (up, down):  1.542E-03 0.000E+00

     total cpu time spent up to now is    13929.8 secs

     total energy              =   -2034.22215647 Ry
     estimated scf accuracy    <       0.00130417 Ry

     iteration # 38     ecut=    45.00 Ry     beta= 0.70
     Davidson diagonalization with overlap
     ethr =  2.52E-08,  avg # of iterations =  2.4

     negative rho (up, down):  1.540E-03 0.000E+00

     total cpu time spent up to now is    13961.6 secs

     total energy              =   -2034.22217274 Ry
     estimated scf accuracy    <       0.00005260 Ry

     iteration # 39     ecut=    45.00 Ry     beta= 0.70
     Davidson diagonalization with overlap
     ethr =  2.52E-08,  avg # of iterations =  1.8

     negative rho (up, down):  1.541E-03 0.000E+00

     total cpu time spent up to now is    13992.8 secs

     total energy              =   -2034.22216957 Ry
     estimated scf accuracy    <       0.00021423 Ry

     iteration # 40     ecut=    45.00 Ry     beta= 0.70
     Davidson diagonalization with overlap
     ethr =  2.52E-08,  avg # of iterations =  1.0

     negative rho (up, down):  1.541E-03 0.000E+00

     total cpu time spent up to now is    14020.7 secs

     total energy              =   -2034.22217351 Ry
     estimated scf accuracy    <       0.00001243 Ry

     iteration # 41     ecut=    45.00 Ry     beta= 0.70
     Davidson diagonalization with overlap
     ethr =  9.71E-09,  avg # of iterations =  2.2

     negative rho (up, down):  1.541E-03 0.000E+00

     total cpu time spent up to now is    14053.7 secs

     total energy              =   -2034.22217313 Ry
     estimated scf accuracy    <       0.00009203 Ry

     iteration # 42     ecut=    45.00 Ry     beta= 0.70
     Davidson diagonalization with overlap
     ethr =  9.71E-09,  avg # of iterations =  1.9

     negative rho (up, down):  1.541E-03 0.000E+00

     total cpu time spent up to now is    14084.9 secs

     total energy              =   -2034.22217380 Ry
     estimated scf accuracy    <       0.00000113 Ry

     iteration # 43     ecut=    45.00 Ry     beta= 0.70
     Davidson diagonalization with overlap
     ethr =  8.81E-10,  avg # of iterations =  3.6

     negative rho (up, down):  1.543E-03 0.000E+00

     total cpu time spent up to now is    14120.8 secs

     total energy              =   -2034.22217112 Ry
     estimated scf accuracy    <       0.00076572 Ry

     iteration # 44     ecut=    45.00 Ry     beta= 0.70
     Davidson diagonalization with overlap
     ethr =  8.81E-10,  avg # of iterations =  3.0

     negative rho (up, down):  1.542E-03 0.000E+00

     total cpu time spent up to now is    14154.9 secs

     total energy              =   -2034.22217382 Ry
     estimated scf accuracy    <       0.00000113 Ry

     iteration # 45     ecut=    45.00 Ry     beta= 0.70
     Davidson diagonalization with overlap
     ethr =  8.81E-10,  avg # of iterations =  3.0

     negative rho (up, down):  1.541E-03 0.000E+00

     total cpu time spent up to now is    14188.2 secs

     total energy              =   -2034.22217356 Ry
     estimated scf accuracy    <       0.00005819 Ry

     iteration # 46     ecut=    45.00 Ry     beta= 0.70
     Davidson diagonalization with overlap
     ethr =  8.81E-10,  avg # of iterations =  2.8

     negative rho (up, down):  1.541E-03 0.000E+00

     total cpu time spent up to now is    14221.4 secs

     total energy              =   -2034.22217385 Ry
     estimated scf accuracy    <       0.00000314 Ry

     iteration # 47     ecut=    45.00 Ry     beta= 0.70
     Davidson diagonalization with overlap
     ethr =  8.81E-10,  avg # of iterations =  2.4

     negative rho (up, down):  1.541E-03 0.000E+00

     total cpu time spent up to now is    14252.7 secs

     total energy              =   -2034.22217376 Ry
     estimated scf accuracy    <       0.00000876 Ry

     iteration # 48     ecut=    45.00 Ry     beta= 0.70
     Davidson diagonalization with overlap
     ethr =  8.81E-10,  avg # of iterations =  1.2

     negative rho (up, down):  1.542E-03 0.000E+00

     total cpu time spent up to now is    14282.8 secs

     total energy              =   -2034.22217386 Ry
     estimated scf accuracy    <       0.00000428 Ry

     iteration # 49     ecut=    45.00 Ry     beta= 0.70
     Davidson diagonalization with overlap
     ethr =  8.81E-10,  avg # of iterations =  2.6

     negative rho (up, down):  1.541E-03 0.000E+00

     total cpu time spent up to now is    14315.7 secs

     total energy              =   -2034.22217355 Ry
     estimated scf accuracy    <       0.00002082 Ry

     iteration # 50     ecut=    45.00 Ry     beta= 0.70
     Davidson diagonalization with overlap
     ethr =  8.81E-10,  avg # of iterations =  1.8

     negative rho (up, down):  1.541E-03 0.000E+00

     total cpu time spent up to now is    14347.2 secs

     total energy              =   -2034.22217391 Ry
     estimated scf accuracy    <       0.00000073 Ry

     iteration # 51     ecut=    45.00 Ry     beta= 0.70
     Davidson diagonalization with overlap
     ethr =  5.68E-10,  avg # of iterations =  1.2

     negative rho (up, down):  1.541E-03 0.000E+00

     total cpu time spent up to now is    14376.4 secs

     total energy              =   -2034.22217392 Ry
     estimated scf accuracy    <       0.00000003 Ry

     iteration # 52     ecut=    45.00 Ry     beta= 0.70
     Davidson diagonalization with overlap
     ethr =  2.36E-11,  avg # of iterations =  3.3

     negative rho (up, down):  1.541E-03 0.000E+00

     total cpu time spent up to now is    14413.7 secs

     total energy              =   -2034.22217392 Ry
     estimated scf accuracy    <       0.00000002 Ry

     iteration # 53     ecut=    45.00 Ry     beta= 0.70
     Davidson diagonalization with overlap
     ethr =  1.73E-11,  avg # of iterations =  2.4

     negative rho (up, down):  1.542E-03 0.000E+00

     total cpu time spent up to now is    14450.4 secs

     total energy              =   -2034.22217389 Ry
     estimated scf accuracy    <       0.00000886 Ry

     iteration # 54     ecut=    45.00 Ry     beta= 0.70
     Davidson diagonalization with overlap
     ethr =  1.73E-11,  avg # of iterations =  2.2

     negative rho (up, down):  1.541E-03 0.000E+00

     total cpu time spent up to now is    14486.8 secs

     total energy              =   -2034.22217392 Ry
     estimated scf accuracy    <       0.00000004 Ry

     iteration # 55     ecut=    45.00 Ry     beta= 0.70
     Davidson diagonalization with overlap
     ethr =  1.73E-11,  avg # of iterations =  1.1

     negative rho (up, down):  1.541E-03 0.000E+00

     total cpu time spent up to now is    14518.4 secs

     total energy              =   -2034.22217392 Ry
     estimated scf accuracy    <       0.00000006 Ry

     iteration # 56     ecut=    45.00 Ry     beta= 0.70
     Davidson diagonalization with overlap
     ethr =  1.73E-11,  avg # of iterations =  1.0

     negative rho (up, down):  1.541E-03 0.000E+00

     total cpu time spent up to now is    14547.0 secs

     End of self-consistent calculation

          k = 0.0000 0.0000 0.0000 (  6457 PWs)   bands (ev):

   -80.5297 -80.4344 -80.4198 -80.3783 -80.3505 -80.3227 -80.2405 -80.0043
   -46.6636 -46.6636 -46.5562 -46.5126 -46.5126 -46.5081 -46.4960 -46.4683
   -46.4683 -46.4464 -46.3933 -46.3933 -46.3793 -46.3192 -46.3192 -46.2838
   -46.2710 -46.2710 -46.2344 -46.2187 -46.2187 -46.0492 -46.0144 -46.0144
    -1.5158  -0.7795   0.4629   1.8578   2.4367   2.7364   2.8440   2.9194
     3.1958   3.3632   3.5141   4.2973   4.7167   5.0699   5.0699   5.1160
     5.1339   5.1339   5.2441   5.2703   5.2703   5.4786   5.4786   5.6125
     5.8289   5.8394   5.8394   5.9582   6.1228   6.2537   6.3505   6.3788
     6.3788   6.6320   6.6519   6.6800   6.8803   6.9402   6.9402   7.0924
     7.3260   7.3599   7.3599   7.4019   7.6450

          k = 0.0000 0.2500 0.0000 (  6508 PWs)   bands (ev):

   -80.5145 -80.4192 -80.4108 -80.3751 -80.3576 -80.3340 -80.2485 -80.0032
   -46.7151 -46.6203 -46.5908 -46.5709 -46.5460 -46.5195 -46.4842 -46.4764
   -46.4514 -46.4426 -46.4047 -46.3923 -46.3606 -46.3352 -46.3299 -46.3044
   -46.2825 -46.2605 -46.2592 -46.2269 -46.2206 -46.0441 -46.0361 -46.0204
    -0.3104   0.3433   1.3683   2.3461   2.7613   2.9710   3.1379   3.2467
     3.4549   3.6434   4.1035   4.1660   4.4634   4.6050   4.7047   4.7214
     4.8404   4.9909   5.0216   5.0910   5.2337   5.4184   5.6036   5.7046
     5.7892   6.1058   6.1866   6.2154   6.2649   6.2865   6.3437   6.4356
     6.5165   6.5913   6.6383   6.7222   6.8220   6.9041   7.0091   7.0422
     7.2709   7.4739   7.5522   7.6676   7.7095

          k = 0.0000-0.5000 0.0000 (  6560 PWs)   bands (ev):

   -80.4976 -80.4007 -80.3942 -80.3738 -80.3656 -80.3543 -80.2571 -80.0022
   -46.7518 -46.6446 -46.5993 -46.5987 -46.5644 -46.5333 -46.5309 -46.4490
   -46.4215 -46.4123 -46.4043 -46.3903 -46.3695 -46.3680 -46.3493 -46.3315
   -46.3085 -46.2739 -46.2637 -46.2180 -46.2137 -46.0564 -46.0398 -46.0262
     1.9920   2.1920   2.3849   2.3913   2.4060   2.5453   2.9682   3.4450
     3.7790   3.9994   4.2651   4.2940   4.3250   4.4456   4.5798   4.8021
     4.8050   4.8438   5.2959   5.3620   5.3800   5.6157   5.6592   5.7765
     6.0356   6.0634   6.2720   6.3919   6.5202   6.5219   6.5398   6.5425
     6.7205   6.7794   7.0812   7.1128   7.5039   7.5393   7.5737   7.6207
     7.6787   7.6960   7.7018   7.7763   7.8017

          k = 0.2500 0.0000 0.0000 (  6508 PWs)   bands (ev):

   -80.5145 -80.4192 -80.4108 -80.3751 -80.3576 -80.3340 -80.2485 -80.0032
   -46.7151 -46.6203 -46.5908 -46.5709 -46.5460 -46.5195 -46.4842 -46.4764
   -46.4514 -46.4426 -46.4047 -46.3923 -46.3606 -46.3352 -46.3299 -46.3044
   -46.2825 -46.2605 -46.2592 -46.2269 -46.2206 -46.0441 -46.0361 -46.0204
    -0.3104   0.3433   1.3683   2.3461   2.7613   2.9710   3.1379   3.2467
     3.4549   3.6434   4.1035   4.1660   4.4634   4.6050   4.7047   4.7214
     4.8404   4.9909   5.0216   5.0910   5.2337   5.4184   5.6036   5.7046
     5.7892   6.1058   6.1866   6.2154   6.2649   6.2865   6.3437   6.4356
     6.5165   6.5913   6.6383   6.7222   6.8220   6.9041   7.0091   7.0422
     7.2709   7.4739   7.5522   7.6676   7.7095

          k = 0.2500 0.2500 0.0000 (  6498 PWs)   bands (ev):

   -80.5051 -80.4085 -80.4043 -80.3716 -80.3617 -80.3406 -80.2515 -80.0016
   -46.7168 -46.6780 -46.5783 -46.5596 -46.5454 -46.5338 -46.5070 -46.4997
   -46.4870 -46.4386 -46.4194 -46.3883 -46.3613 -46.3345 -46.3235 -46.3001
   -46.2866 -46.2766 -46.2708 -46.2187 -46.2178 -46.0512 -46.0347 -46.0345
     0.7457   1.3738   2.3251   3.0902   3.3341   3.3908   3.5068   3.7002
     3.7813   3.8162   3.9430   4.0789   4.0814   4.2196   4.3545   4.3624
     4.4789   4.4819   4.5552   4.7047   4.8355   5.0740   5.5970   5.6713
     5.8965   5.9769   6.1437   6.4238   6.4872   6.5226   6.5545   6.6039
     6.6246   6.6567   6.7566   6.8431   6.8508   6.9038   6.9972   7.1353
     7.1574   7.4833   7.5194   8.3396   9.3297

          k = 0.2500-0.5000 0.0000 (  6510 PWs)   bands (ev):

   -80.4952 -80.3984 -80.3919 -80.3715 -80.3633 -80.3520 -80.2547 -79.9999
   -46.7556 -46.6979 -46.5869 -46.5814 -46.5708 -46.5611 -46.5557 -46.4583
   -46.4580 -46.4395 -46.4046 -46.4029 -46.3855 -46.3385 -46.3065 -46.3064
   -46.2926 -46.2902 -46.2831 -46.2274 -46.2064 -46.0554 -46.0540 -46.0311
     2.5224   2.6502   2.8712   2.9755   3.0936   3.2438   3.4361   3.6398
     3.8389   3.9014   3.9126   4.1329   4.1996   4.2676   4.4348   4.5302
     4.5433   4.7200   4.7232   4.7824   5.2125   5.3402   5.5074   5.8889
     5.9404   6.3068   6.3506   6.4177   6.4565   6.5250   6.6067   6.6261
     6.7345   6.7871   6.8525   6.8833   6.9313   6.9427   7.1139   7.1261
     8.0217   8.0656   8.8098   8.8135   9.7404

          k = 0.2500-0.2500 0.0000 (  6498 PWs)   bands (ev):

   -80.5051 -80.4085 -80.4043 -80.3716 -80.3617 -80.3406 -80.2515 -80.0016
   -46.7168 -46.6780 -46.5783 -46.5596 -46.5454 -46.5338 -46.5070 -46.4997
   -46.4870 -46.4386 -46.4194 -46.3883 -46.3613 -46.3345 -46.3235 -46.3001
   -46.2866 -46.2766 -46.2708 -46.2187 -46.2178 -46.0512 -46.0347 -46.0345
     0.7457   1.3738   2.3251   3.0902   3.3341   3.3908   3.5068   3.7002
     3.7813   3.8162   3.9430   4.0789   4.0814   4.2196   4.3545   4.3624
     4.4789   4.4819   4.5552   4.7047   4.8355   5.0740   5.5970   5.6713
     5.8965   5.9769   6.1437   6.4238   6.4872   6.5226   6.5545   6.6039
     6.6246   6.6567   6.7566   6.8431   6.8508   6.9038   6.9972   7.1353
     7.1574   7.4833   7.5194   8.3396   9.3297

          k =-0.5000 0.0000 0.0000 (  6560 PWs)   bands (ev):

   -80.4976 -80.4007 -80.3942 -80.3738 -80.3656 -80.3543 -80.2571 -80.0022
   -46.7518 -46.6446 -46.5993 -46.5987 -46.5644 -46.5333 -46.5309 -46.4490
   -46.4215 -46.4123 -46.4043 -46.3903 -46.3695 -46.3680 -46.3493 -46.3315
   -46.3085 -46.2739 -46.2637 -46.2180 -46.2137 -46.0564 -46.0398 -46.0262
     1.9920   2.1920   2.3849   2.3913   2.4060   2.5453   2.9682   3.4450
     3.7790   3.9994   4.2651   4.2940   4.3250   4.4456   4.5798   4.8021
     4.8050   4.8438   5.2959   5.3620   5.3800   5.6157   5.6592   5.7765
     6.0356   6.0634   6.2720   6.3919   6.5202   6.5219   6.5398   6.5425
     6.7205   6.7794   7.0812   7.1128   7.5039   7.5393   7.5737   7.6207
     7.6787   7.6960   7.7018   7.7763   7.8017

          k =-0.5000 0.2500 0.0000 (  6510 PWs)   bands (ev):

   -80.4952 -80.3984 -80.3919 -80.3715 -80.3633 -80.3520 -80.2547 -79.9999
   -46.7556 -46.6979 -46.5869 -46.5814 -46.5708 -46.5611 -46.5557 -46.4583
   -46.4580 -46.4395 -46.4046 -46.4029 -46.3855 -46.3385 -46.3065 -46.3064
   -46.2926 -46.2902 -46.2831 -46.2274 -46.2064 -46.0554 -46.0540 -46.0311
     2.5224   2.6502   2.8712   2.9755   3.0936   3.2438   3.4361   3.6398
     3.8389   3.9014   3.9126   4.1329   4.1996   4.2676   4.4348   4.5302
     4.5433   4.7200   4.7232   4.7824   5.2125   5.3402   5.5074   5.8889
     5.9404   6.3068   6.3506   6.4177   6.4565   6.5250   6.6067   6.6261
     6.7345   6.7871   6.8525   6.8833   6.9313   6.9427   7.1139   7.1261
     8.0217   8.0656   8.8098   8.8135   9.7404

          k =-0.5000-0.5000 0.0000 (  6576 PWs)   bands (ev):

   -80.4929 -80.3962 -80.3898 -80.3694 -80.3612 -80.3498 -80.2525 -79.9979
   -46.7760 -46.7760 -46.6138 -46.6138 -46.5488 -46.5488 -46.4822 -46.4644
   -46.4484 -46.4484 -46.4210 -46.4149 -46.3916 -46.3769 -46.3493 -46.3493
   -46.2814 -46.2814 -46.2705 -46.2159 -46.2159 -46.0553 -46.0553 -46.0547
     2.3713   2.5020   2.8903   2.9930   3.6145   3.6301   3.8030   3.8030
     3.9360   3.9360   3.9769   3.9769   4.1854   4.2043   4.2043   4.3895
     4.4365   4.4365   4.9617   4.9617   5.8244   5.8244   6.1147   6.4448
     6.5883   6.6197   6.6479   6.7100   6.7857   6.7931   6.7947   6.7979
     6.8067   6.8237   6.8367   6.8684   6.8953   7.1011   7.1011   7.1725
     8.0894   8.0894   9.7889   9.7889  11.6419

     the Fermi energy is     6.6390 ev

!    total energy              =   -2034.22217391 Ry
     estimated scf accuracy    <          4.3E-09 Ry
     smearing contrib. (-TS)   =      -0.01696209 Ry
     internal energy E=F+TS    =   -2034.20521182 Ry

     The total energy is F=E-TS. E is the sum of the following terms:
     one-electron contribution =  -14171.07023669 Ry
     hartree contribution      =    7109.28377039 Ry
     xc contribution           =    -277.24843742 Ry
     ewald contribution        =    5304.82969190 Ry

     convergence has been achieved in  56 iterations

     negative rho (up, down):  1.541E-03 0.000E+00

     Forces acting on atoms (cartesian axes, Ry/au):

     atom    1 type  1   force =    -0.00000000   -0.00000000   -0.03283763
     atom    2 type  1   force =     0.00000000    0.00000000    0.06440835
     atom    3 type  1   force =     0.00000000   -0.00000000    0.00962145
     atom    4 type  1   force =     0.00000000   -0.00000000    0.00113305
     atom    5 type  1   force =     0.00000000   -0.00000000   -0.00059051
     atom    6 type  1   force =    -0.00000000   -0.00000000   -0.01595537
     atom    7 type  1   force =     0.00000000    0.00000000   -0.01812144
     atom    8 type  1   force =    -0.00000001    0.00000000   -0.00765790

     Total force =     0.018121     Total SCF correction =     0.000160
     Energy error            =      8.5E-03
     Gradient error          =      1.8E-02

     number of scf cycles    =   6
     number of bfgs steps    =   5

     energy   old            =   -2034.2136295907 Ry
     energy   new            =   -2034.2221739150 Ry

     CASE: energy  _new < energy  _old

     new trust radius        =       0.1334761252 bohr
     new conv_thr            =       0.0000000018 Ry


ATOMIC_POSITIONS (angstrom)
Fe            0.0000000000        0.0000000000        2.1525000000    0   0   0
Fe            1.4350000000        1.4350000000        0.7175000000    0   0   0
Fe            0.0000000000        0.0000000000        5.0225000000    0   0   0
Fe            1.4350000000        1.4350000000        3.5875000000    0   0   0
Fe            0.0000000000        0.0000000000        7.8925000000    0   0   0
Fe            1.4350000000        1.4350000000        6.4575000000    0   0   0
Fe           -0.0000000305       -0.0000000155       10.3524630551
Fe            1.4350000000        1.4350000000        9.3275000000    0   0   0



     Writing output data file ./tmp/fe_clean_fe_surface.save/
     NEW-OLD atomic charge density approx. for the potential

     Check: negative core charge=   -0.000078

     negative rho (up, down):  1.596E-03 0.000E+00

     total cpu time spent up to now is    14558.9 secs

     Self-consistent Calculation

     iteration #  1     ecut=    45.00 Ry     beta= 0.70
     Davidson diagonalization with overlap
     ethr =  1.00E-06,  avg # of iterations = 10.7

     negative rho (up, down):  1.621E-03 0.000E+00

     total cpu time spent up to now is    14663.1 secs

     total energy              =   -2034.10467213 Ry
     estimated scf accuracy    <       0.13614866 Ry

     iteration #  2     ecut=    45.00 Ry     beta= 0.70
     Davidson diagonalization with overlap
     ethr =  1.06E-04,  avg # of iterations = 10.1

     negative rho (up, down):  2.174E-02 0.000E+00

     total cpu time spent up to now is    14736.8 secs

     total energy              =   -2031.41043243 Ry
     estimated scf accuracy    <     482.12833462 Ry

     iteration #  3     ecut=    45.00 Ry     beta= 0.70
     Davidson diagonalization with overlap
     ethr =  1.06E-04,  avg # of iterations =  8.9

     negative rho (up, down):  1.870E-02 0.000E+00

     total cpu time spent up to now is    14809.6 secs

     total energy              =   -2033.72762336 Ry
     estimated scf accuracy    <      73.37469831 Ry

     iteration #  4     ecut=    45.00 Ry     beta= 0.70
     Davidson diagonalization with overlap
     ethr =  1.06E-04,  avg # of iterations =  6.2

     negative rho (up, down):  1.456E-02 0.000E+00

     total cpu time spent up to now is    14858.3 secs

     total energy              =   -2034.11635875 Ry
     estimated scf accuracy    <      18.73204415 Ry

     iteration #  5     ecut=    45.00 Ry     beta= 0.70
     Davidson diagonalization with overlap
     ethr =  1.06E-04,  avg # of iterations =  3.9

     negative rho (up, down):  1.232E-02 0.000E+00

     total cpu time spent up to now is    14892.6 secs

     total energy              =   -2034.17916169 Ry
     estimated scf accuracy    <       8.58876192 Ry

     iteration #  6     ecut=    45.00 Ry     beta= 0.70
     Davidson diagonalization with overlap
     ethr =  1.06E-04,  avg # of iterations =  2.7

     negative rho (up, down):  8.010E-03 0.000E+00

     total cpu time spent up to now is    14924.5 secs

     total energy              =   -2034.21433712 Ry
     estimated scf accuracy    <       1.93255089 Ry

     iteration #  7     ecut=    45.00 Ry     beta= 0.70
     Davidson diagonalization with overlap
     ethr =  1.06E-04,  avg # of iterations =  1.1

     negative rho (up, down):  8.201E-03 0.000E+00

     total cpu time spent up to now is    14952.4 secs

     total energy              =   -2034.21272873 Ry
     estimated scf accuracy    <       2.38918678 Ry

     iteration #  8     ecut=    45.00 Ry     beta= 0.70
     Davidson diagonalization with overlap
     ethr =  1.06E-04,  avg # of iterations =  1.0

     negative rho (up, down):  5.258E-03 0.000E+00

     total cpu time spent up to now is    14979.9 secs

     total energy              =   -2034.21796512 Ry
     estimated scf accuracy    <       0.40968739 Ry

     iteration #  9     ecut=    45.00 Ry     beta= 0.70
     Davidson diagonalization with overlap
     ethr =  1.06E-04,  avg # of iterations =  1.0

     negative rho (up, down):  3.277E-03 0.000E+00

     total cpu time spent up to now is    15007.4 secs

     total energy              =   -2034.22085679 Ry
     estimated scf accuracy    <       0.08728224 Ry

     iteration # 10     ecut=    45.00 Ry     beta= 0.70
     Davidson diagonalization with overlap
     ethr =  6.82E-05,  avg # of iterations =  1.5

     negative rho (up, down):  1.945E-03 0.000E+00

     total cpu time spent up to now is    15035.7 secs

     total energy              =   -2034.22057490 Ry
     estimated scf accuracy    <       0.04393191 Ry

     iteration # 11     ecut=    45.00 Ry     beta= 0.70
     Davidson diagonalization with overlap
     ethr =  3.43E-05,  avg # of iterations =  2.9

     negative rho (up, down):  2.455E-03 0.000E+00

     total cpu time spent up to now is    15065.2 secs

     total energy              =   -2034.22154646 Ry
     estimated scf accuracy    <       0.31799461 Ry

     iteration # 12     ecut=    45.00 Ry     beta= 0.70
     Davidson diagonalization with overlap
     ethr =  3.43E-05,  avg # of iterations =  1.0

     negative rho (up, down):  1.905E-03 0.000E+00

     total cpu time spent up to now is    15093.5 secs

     total energy              =   -2034.22289192 Ry
     estimated scf accuracy    <       0.00734707 Ry

     iteration # 13     ecut=    45.00 Ry     beta= 0.70
     Davidson diagonalization with overlap
     ethr =  5.74E-06,  avg # of iterations =  1.0

     negative rho (up, down):  1.724E-03 0.000E+00

     total cpu time spent up to now is    15121.6 secs

     total energy              =   -2034.22301002 Ry
     estimated scf accuracy    <       0.00065976 Ry

     iteration # 14     ecut=    45.00 Ry     beta= 0.70
     Davidson diagonalization with overlap
     ethr =  5.15E-07,  avg # of iterations =  3.3

     negative rho (up, down):  1.753E-03 0.000E+00

     total cpu time spent up to now is    15155.7 secs

     total energy              =   -2034.22290144 Ry
     estimated scf accuracy    <       0.02574054 Ry

     iteration # 15     ecut=    45.00 Ry     beta= 0.70
     Davidson diagonalization with overlap
     ethr =  5.15E-07,  avg # of iterations =  2.9

     negative rho (up, down):  1.841E-03 0.000E+00

     total cpu time spent up to now is    15191.8 secs

     total energy              =   -2034.22262854 Ry
     estimated scf accuracy    <       0.05555019 Ry

     iteration # 16     ecut=    45.00 Ry     beta= 0.70
     Davidson diagonalization with overlap
     ethr =  5.15E-07,  avg # of iterations =  2.9

     negative rho (up, down):  1.739E-03 0.000E+00

     total cpu time spent up to now is    15225.5 secs

     total energy              =   -2034.22292862 Ry
     estimated scf accuracy    <       0.02854159 Ry

     iteration # 17     ecut=    45.00 Ry     beta= 0.70
     Davidson diagonalization with overlap
     ethr =  5.15E-07,  avg # of iterations =  1.7

     negative rho (up, down):  1.664E-03 0.000E+00

     total cpu time spent up to now is    15254.6 secs

     total energy              =   -2034.22300957 Ry
     estimated scf accuracy    <       0.00060517 Ry

     iteration # 18     ecut=    45.00 Ry     beta= 0.70
     Davidson diagonalization with overlap
     ethr =  4.73E-07,  avg # of iterations =  2.5

     negative rho (up, down):  1.786E-03 0.000E+00

     total cpu time spent up to now is    15287.8 secs

     total energy              =   -2034.22266510 Ry
     estimated scf accuracy    <       0.02615820 Ry

     iteration # 19     ecut=    45.00 Ry     beta= 0.70
     Davidson diagonalization with overlap
     ethr =  4.73E-07,  avg # of iterations =  4.9

     negative rho (up, down):  1.995E-03 0.000E+00

     total cpu time spent up to now is    15327.5 secs

     total energy              =   -2034.22183220 Ry
     estimated scf accuracy    <       0.12882643 Ry

     iteration # 20     ecut=    45.00 Ry     beta= 0.70
     Davidson diagonalization with overlap
     ethr =  4.73E-07,  avg # of iterations =  4.5

     negative rho (up, down):  1.695E-03 0.000E+00

     total cpu time spent up to now is    15365.7 secs

     total energy              =   -2034.22299960 Ry
     estimated scf accuracy    <       0.00135282 Ry

     iteration # 21     ecut=    45.00 Ry     beta= 0.70
     Davidson diagonalization with overlap
     ethr =  4.73E-07,  avg # of iterations =  1.8

     negative rho (up, down):  1.669E-03 0.000E+00

     total cpu time spent up to now is    15397.3 secs

     total energy              =   -2034.22299460 Ry
     estimated scf accuracy    <       0.00615523 Ry

     iteration # 22     ecut=    45.00 Ry     beta= 0.70
     Davidson diagonalization with overlap
     ethr =  4.73E-07,  avg # of iterations =  2.1

     negative rho (up, down):  1.656E-03 0.000E+00

     total cpu time spent up to now is    15432.3 secs

     total energy              =   -2034.22304457 Ry
     estimated scf accuracy    <       0.00021279 Ry

     iteration # 23     ecut=    45.00 Ry     beta= 0.70
     Davidson diagonalization with overlap
     ethr =  1.66E-07,  avg # of iterations =  1.1

     negative rho (up, down):  1.658E-03 0.000E+00

     total cpu time spent up to now is    15461.9 secs

     total energy              =   -2034.22305038 Ry
     estimated scf accuracy    <       0.00031271 Ry

     iteration # 24     ecut=    45.00 Ry     beta= 0.70
     Davidson diagonalization with overlap
     ethr =  1.66E-07,  avg # of iterations =  1.2

     negative rho (up, down):  1.664E-03 0.000E+00

     total cpu time spent up to now is    15492.0 secs

     total energy              =   -2034.22303735 Ry
     estimated scf accuracy    <       0.00344026 Ry

     iteration # 25     ecut=    45.00 Ry     beta= 0.70
     Davidson diagonalization with overlap
     ethr =  1.66E-07,  avg # of iterations =  1.1

     negative rho (up, down):  1.668E-03 0.000E+00

     total cpu time spent up to now is    15521.5 secs

     total energy              =   -2034.22303813 Ry
     estimated scf accuracy    <       0.00206434 Ry

     iteration # 26     ecut=    45.00 Ry     beta= 0.70
     Davidson diagonalization with overlap
     ethr =  1.66E-07,  avg # of iterations =  1.4

     negative rho (up, down):  1.674E-03 0.000E+00

     total cpu time spent up to now is    15551.4 secs

     total energy              =   -2034.22302264 Ry
     estimated scf accuracy    <       0.00725894 Ry

     iteration # 27     ecut=    45.00 Ry     beta= 0.70
     Davidson diagonalization with overlap
     ethr =  1.66E-07,  avg # of iterations =  2.0

     negative rho (up, down):  1.661E-03 0.000E+00

     total cpu time spent up to now is    15584.0 secs

     total energy              =   -2034.22304498 Ry
     estimated scf accuracy    <       0.00119038 Ry

     iteration # 28     ecut=    45.00 Ry     beta= 0.70
     Davidson diagonalization with overlap
     ethr =  1.66E-07,  avg # of iterations =  1.0

     negative rho (up, down):  1.661E-03 0.000E+00

     total cpu time spent up to now is    15612.4 secs

     total energy              =   -2034.22305200 Ry
     estimated scf accuracy    <       0.00036061 Ry

     iteration # 29     ecut=    45.00 Ry     beta= 0.70
     Davidson diagonalization with overlap
     ethr =  1.66E-07,  avg # of iterations =  1.0

     negative rho (up, down):  1.659E-03 0.000E+00

     total cpu time spent up to now is    15641.7 secs

     total energy              =   -2034.22305010 Ry
     estimated scf accuracy    <       0.00036307 Ry

     iteration # 30     ecut=    45.00 Ry     beta= 0.70
     Davidson diagonalization with overlap
     ethr =  1.66E-07,  avg # of iterations =  1.0

     negative rho (up, down):  1.659E-03 0.000E+00

     total cpu time spent up to now is    15669.4 secs

     total energy              =   -2034.22304167 Ry
     estimated scf accuracy    <       0.00233473 Ry

     iteration # 31     ecut=    45.00 Ry     beta= 0.70
     Davidson diagonalization with overlap
     ethr =  1.66E-07,  avg # of iterations =  1.0

     negative rho (up, down):  1.659E-03 0.000E+00

     total cpu time spent up to now is    15697.9 secs

     total energy              =   -2034.22305275 Ry
     estimated scf accuracy    <       0.00044107 Ry

     iteration # 32     ecut=    45.00 Ry     beta= 0.70
     Davidson diagonalization with overlap
     ethr =  1.66E-07,  avg # of iterations =  1.5

     negative rho (up, down):  1.656E-03 0.000E+00

     total cpu time spent up to now is    15727.9 secs

     total energy              =   -2034.22305343 Ry
     estimated scf accuracy    <       0.00004578 Ry

     iteration # 33     ecut=    45.00 Ry     beta= 0.70
     Davidson diagonalization with overlap
     ethr =  3.58E-08,  avg # of iterations =  2.2

     negative rho (up, down):  1.659E-03 0.000E+00

     total cpu time spent up to now is    15761.0 secs

     total energy              =   -2034.22304871 Ry
     estimated scf accuracy    <       0.00035886 Ry

     iteration # 34     ecut=    45.00 Ry     beta= 0.70
     Davidson diagonalization with overlap
     ethr =  3.58E-08,  avg # of iterations =  2.2

     negative rho (up, down):  1.662E-03 0.000E+00

     total cpu time spent up to now is    15795.3 secs

     total energy              =   -2034.22304545 Ry
     estimated scf accuracy    <       0.00208497 Ry

     iteration # 35     ecut=    45.00 Ry     beta= 0.70
     Davidson diagonalization with overlap
     ethr =  3.58E-08,  avg # of iterations =  2.2

     negative rho (up, down):  1.659E-03 0.000E+00

     total cpu time spent up to now is    15828.2 secs

     total energy              =   -2034.22305499 Ry
     estimated scf accuracy    <       0.00017653 Ry

     iteration # 36     ecut=    45.00 Ry     beta= 0.70
     Davidson diagonalization with overlap
     ethr =  3.58E-08,  avg # of iterations =  1.8

     negative rho (up, down):  1.662E-03 0.000E+00

     total cpu time spent up to now is    15859.1 secs

     total energy              =   -2034.22304648 Ry
     estimated scf accuracy    <       0.00224690 Ry

     iteration # 37     ecut=    45.00 Ry     beta= 0.70
     Davidson diagonalization with overlap
     ethr =  3.58E-08,  avg # of iterations =  1.1

     negative rho (up, down):  1.658E-03 0.000E+00

     total cpu time spent up to now is    15887.3 secs

     total energy              =   -2034.22305245 Ry
     estimated scf accuracy    <       0.00014620 Ry

     iteration # 38     ecut=    45.00 Ry     beta= 0.70
     Davidson diagonalization with overlap
     ethr =  3.58E-08,  avg # of iterations =  4.1

     negative rho (up, down):  1.701E-03 0.000E+00

     total cpu time spent up to now is    15923.8 secs

     total energy              =   -2034.22296313 Ry
     estimated scf accuracy    <       0.00711085 Ry

     iteration # 39     ecut=    45.00 Ry     beta= 0.70
     Davidson diagonalization with overlap
     ethr =  3.58E-08,  avg # of iterations =  4.2

     negative rho (up, down):  1.683E-03 0.000E+00

     total cpu time spent up to now is    15963.2 secs

     total energy              =   -2034.22300278 Ry
     estimated scf accuracy    <       0.00524152 Ry

     iteration # 40     ecut=    45.00 Ry     beta= 0.70
     Davidson diagonalization with overlap
     ethr =  3.58E-08,  avg # of iterations =  3.1

     negative rho (up, down):  1.660E-03 0.000E+00

     total cpu time spent up to now is    15998.3 secs

     total energy              =   -2034.22305461 Ry
     estimated scf accuracy    <       0.00012127 Ry

     iteration # 41     ecut=    45.00 Ry     beta= 0.70
     Davidson diagonalization with overlap
     ethr =  3.58E-08,  avg # of iterations =  1.8

     negative rho (up, down):  1.659E-03 0.000E+00

     total cpu time spent up to now is    16029.9 secs

     total energy              =   -2034.22305344 Ry
     estimated scf accuracy    <       0.00021117 Ry

     iteration # 42     ecut=    45.00 Ry     beta= 0.70
     Davidson diagonalization with overlap
     ethr =  3.58E-08,  avg # of iterations =  2.2

     negative rho (up, down):  1.657E-03 0.000E+00

     total cpu time spent up to now is    16062.7 secs

     total energy              =   -2034.22305595 Ry
     estimated scf accuracy    <       0.00004286 Ry

     iteration # 43     ecut=    45.00 Ry     beta= 0.70
     Davidson diagonalization with overlap
     ethr =  3.35E-08,  avg # of iterations =  1.1

     negative rho (up, down):  1.658E-03 0.000E+00

     total cpu time spent up to now is    16090.6 secs

     total energy              =   -2034.22305605 Ry
     estimated scf accuracy    <       0.00004319 Ry

     iteration # 44     ecut=    45.00 Ry     beta= 0.70
     Davidson diagonalization with overlap
     ethr =  3.35E-08,  avg # of iterations =  1.2

     negative rho (up, down):  1.658E-03 0.000E+00

     total cpu time spent up to now is    16118.6 secs

     total energy              =   -2034.22305494 Ry
     estimated scf accuracy    <       0.00032458 Ry

     iteration # 45     ecut=    45.00 Ry     beta= 0.70
     Davidson diagonalization with overlap
     ethr =  3.35E-08,  avg # of iterations =  1.1

     negative rho (up, down):  1.659E-03 0.000E+00

     total cpu time spent up to now is    16146.6 secs

     total energy              =   -2034.22305599 Ry
     estimated scf accuracy    <       0.00006356 Ry

     iteration # 46     ecut=    45.00 Ry     beta= 0.70
     Davidson diagonalization with overlap
     ethr =  3.35E-08,  avg # of iterations =  1.1

     negative rho (up, down):  1.660E-03 0.000E+00

     total cpu time spent up to now is    16174.7 secs

     total energy              =   -2034.22305307 Ry
     estimated scf accuracy    <       0.00079345 Ry

     iteration # 47     ecut=    45.00 Ry     beta= 0.70
     Davidson diagonalization with overlap
     ethr =  3.35E-08,  avg # of iterations =  2.1

     negative rho (up, down):  1.660E-03 0.000E+00

     total cpu time spent up to now is    16208.9 secs

     total energy              =   -2034.22305271 Ry
     estimated scf accuracy    <       0.00066633 Ry

     iteration # 48     ecut=    45.00 Ry     beta= 0.70
     Davidson diagonalization with overlap
     ethr =  3.35E-08,  avg # of iterations =  1.1

     negative rho (up, down):  1.659E-03 0.000E+00

     total cpu time spent up to now is    16238.1 secs

     total energy              =   -2034.22305602 Ry
     estimated scf accuracy    <       0.00007075 Ry

     iteration # 49     ecut=    45.00 Ry     beta= 0.70
     Davidson diagonalization with overlap
     ethr =  3.35E-08,  avg # of iterations =  1.0

     negative rho (up, down):  1.658E-03 0.000E+00

     total cpu time spent up to now is    16268.8 secs

     total energy              =   -2034.22305547 Ry
     estimated scf accuracy    <       0.00004331 Ry

     iteration # 50     ecut=    45.00 Ry     beta= 0.70
     Davidson diagonalization with overlap
     ethr =  3.35E-08,  avg # of iterations =  1.5

     negative rho (up, down):  1.660E-03 0.000E+00

     total cpu time spent up to now is    16299.9 secs

     total energy              =   -2034.22304855 Ry
     estimated scf accuracy    <       0.00197196 Ry

     iteration # 51     ecut=    45.00 Ry     beta= 0.70
     Davidson diagonalization with overlap
     ethr =  3.35E-08,  avg # of iterations =  1.0

     negative rho (up, down):  1.658E-03 0.000E+00

     total cpu time spent up to now is    16329.5 secs

     total energy              =   -2034.22305553 Ry
     estimated scf accuracy    <       0.00012910 Ry

     iteration # 52     ecut=    45.00 Ry     beta= 0.70
     Davidson diagonalization with overlap
     ethr =  3.35E-08,  avg # of iterations =  1.1

     negative rho (up, down):  1.657E-03 0.000E+00

     total cpu time spent up to now is    16359.9 secs

     total energy              =   -2034.22305625 Ry
     estimated scf accuracy    <       0.00000564 Ry

     iteration # 53     ecut=    45.00 Ry     beta= 0.70
     Davidson diagonalization with overlap
     ethr =  4.41E-09,  avg # of iterations =  4.2

     negative rho (up, down):  1.659E-03 0.000E+00

     total cpu time spent up to now is    16399.2 secs

     total energy              =   -2034.22305111 Ry
     estimated scf accuracy    <       0.00027407 Ry

     iteration # 54     ecut=    45.00 Ry     beta= 0.70
     Davidson diagonalization with overlap
     ethr =  4.41E-09,  avg # of iterations =  3.6

     negative rho (up, down):  1.657E-03 0.000E+00

     total cpu time spent up to now is    16435.8 secs

     total energy              =   -2034.22305608 Ry
     estimated scf accuracy    <       0.00011467 Ry

     iteration # 55     ecut=    45.00 Ry     beta= 0.70
     Davidson diagonalization with overlap
     ethr =  4.41E-09,  avg # of iterations =  2.0

     negative rho (up, down):  1.657E-03 0.000E+00

     total cpu time spent up to now is    16468.3 secs

     total energy              =   -2034.22305684 Ry
     estimated scf accuracy    <       0.00000867 Ry

     iteration # 56     ecut=    45.00 Ry     beta= 0.70
     Davidson diagonalization with overlap
     ethr =  4.41E-09,  avg # of iterations =  2.0

     negative rho (up, down):  1.658E-03 0.000E+00

     total cpu time spent up to now is    16501.8 secs

     total energy              =   -2034.22305628 Ry
     estimated scf accuracy    <       0.00013682 Ry

     iteration # 57     ecut=    45.00 Ry     beta= 0.70
     Davidson diagonalization with overlap
     ethr =  4.41E-09,  avg # of iterations =  1.0

     negative rho (up, down):  1.657E-03 0.000E+00

     total cpu time spent up to now is    16529.7 secs

     total energy              =   -2034.22305666 Ry
     estimated scf accuracy    <       0.00001938 Ry

     iteration # 58     ecut=    45.00 Ry     beta= 0.70
     Davidson diagonalization with overlap
     ethr =  4.41E-09,  avg # of iterations =  2.8

     negative rho (up, down):  1.660E-03 0.000E+00

     total cpu time spent up to now is    16565.0 secs

     total energy              =   -2034.22305210 Ry
     estimated scf accuracy    <       0.00031148 Ry

     iteration # 59     ecut=    45.00 Ry     beta= 0.70
     Davidson diagonalization with overlap
     ethr =  4.41E-09,  avg # of iterations =  3.1

     negative rho (up, down):  1.658E-03 0.000E+00

     total cpu time spent up to now is    16599.9 secs

     total energy              =   -2034.22305599 Ry
     estimated scf accuracy    <       0.00005932 Ry

     iteration # 60     ecut=    45.00 Ry     beta= 0.70
     Davidson diagonalization with overlap
     ethr =  4.41E-09,  avg # of iterations =  1.6

     negative rho (up, down):  1.657E-03 0.000E+00

     total cpu time spent up to now is    16630.6 secs

     total energy              =   -2034.22305687 Ry
     estimated scf accuracy    <       0.00001479 Ry

     iteration # 61     ecut=    45.00 Ry     beta= 0.70
     Davidson diagonalization with overlap
     ethr =  4.41E-09,  avg # of iterations =  1.0

     negative rho (up, down):  1.658E-03 0.000E+00

     total cpu time spent up to now is    16659.0 secs

     total energy              =   -2034.22305681 Ry
     estimated scf accuracy    <       0.00000926 Ry

     iteration # 62     ecut=    45.00 Ry     beta= 0.70
     Davidson diagonalization with overlap
     ethr =  4.41E-09,  avg # of iterations =  1.6

     negative rho (up, down):  1.657E-03 0.000E+00

     total cpu time spent up to now is    16690.8 secs

     total energy              =   -2034.22305691 Ry
     estimated scf accuracy    <       0.00000993 Ry

     iteration # 63     ecut=    45.00 Ry     beta= 0.70
     Davidson diagonalization with overlap
     ethr =  4.41E-09,  avg # of iterations =  1.1

     negative rho (up, down):  1.658E-03 0.000E+00

     total cpu time spent up to now is    16719.0 secs

     total energy              =   -2034.22305695 Ry
     estimated scf accuracy    <       0.00000082 Ry

     iteration # 64     ecut=    45.00 Ry     beta= 0.70
     Davidson diagonalization with overlap
     ethr =  6.44E-10,  avg # of iterations =  2.2

     negative rho (up, down):  1.657E-03 0.000E+00

     total cpu time spent up to now is    16752.0 secs

     total energy              =   -2034.22305689 Ry
     estimated scf accuracy    <       0.00001233 Ry

     iteration # 65     ecut=    45.00 Ry     beta= 0.70
     Davidson diagonalization with overlap
     ethr =  6.44E-10,  avg # of iterations =  2.0

     negative rho (up, down):  1.658E-03 0.000E+00

     total cpu time spent up to now is    16784.6 secs

     total energy              =   -2034.22305695 Ry
     estimated scf accuracy    <       0.00000131 Ry

     iteration # 66     ecut=    45.00 Ry     beta= 0.70
     Davidson diagonalization with overlap
     ethr =  6.44E-10,  avg # of iterations =  2.0

     negative rho (up, down):  1.658E-03 0.000E+00

     total cpu time spent up to now is    16817.5 secs

     total energy              =   -2034.22305686 Ry
     estimated scf accuracy    <       0.00001762 Ry

     iteration # 67     ecut=    45.00 Ry     beta= 0.70
     Davidson diagonalization with overlap
     ethr =  6.44E-10,  avg # of iterations =  4.3

     negative rho (up, down):  1.659E-03 0.000E+00

     total cpu time spent up to now is    16856.4 secs

     total energy              =   -2034.22305464 Ry
     estimated scf accuracy    <       0.00037409 Ry

     iteration # 68     ecut=    45.00 Ry     beta= 0.70
     Davidson diagonalization with overlap
     ethr =  6.44E-10,  avg # of iterations =  4.2

     negative rho (up, down):  1.658E-03 0.000E+00

     total cpu time spent up to now is    16893.2 secs

     total energy              =   -2034.22305692 Ry
     estimated scf accuracy    <       0.00000312 Ry

     iteration # 69     ecut=    45.00 Ry     beta= 0.70
     Davidson diagonalization with overlap
     ethr =  6.44E-10,  avg # of iterations =  1.0

     negative rho (up, down):  1.657E-03 0.000E+00

     total cpu time spent up to now is    16920.6 secs

     total energy              =   -2034.22305689 Ry
     estimated scf accuracy    <       0.00000050 Ry

     iteration # 70     ecut=    45.00 Ry     beta= 0.70
     Davidson diagonalization with overlap
     ethr =  3.87E-10,  avg # of iterations =  4.9

     negative rho (up, down):  1.658E-03 0.000E+00

     total cpu time spent up to now is    16960.0 secs

     total energy              =   -2034.22305384 Ry
     estimated scf accuracy    <       0.00075700 Ry

     iteration # 71     ecut=    45.00 Ry     beta= 0.70
     Davidson diagonalization with overlap
     ethr =  3.87E-10,  avg # of iterations =  4.8

     negative rho (up, down):  1.657E-03 0.000E+00

     total cpu time spent up to now is    17001.3 secs

     total energy              =   -2034.22305682 Ry
     estimated scf accuracy    <       0.00000828 Ry

     iteration # 72     ecut=    45.00 Ry     beta= 0.70
     Davidson diagonalization with overlap
     ethr =  3.87E-10,  avg # of iterations =  1.8

     negative rho (up, down):  1.657E-03 0.000E+00

     total cpu time spent up to now is    17033.2 secs

     total energy              =   -2034.22305696 Ry
     estimated scf accuracy    <       0.00000013 Ry

     iteration # 73     ecut=    45.00 Ry     beta= 0.70
     Davidson diagonalization with overlap
     ethr =  9.80E-11,  avg # of iterations =  4.7

     negative rho (up, down):  1.658E-03 0.000E+00

     total cpu time spent up to now is    17073.0 secs

     total energy              =   -2034.22305675 Ry
     estimated scf accuracy    <       0.00002472 Ry

     iteration # 74     ecut=    45.00 Ry     beta= 0.70
     Davidson diagonalization with overlap
     ethr =  9.80E-11,  avg # of iterations =  4.1

     negative rho (up, down):  1.657E-03 0.000E+00

     total cpu time spent up to now is    17112.4 secs

     total energy              =   -2034.22305698 Ry
     estimated scf accuracy    <       0.00000016 Ry

     iteration # 75     ecut=    45.00 Ry     beta= 0.70
     Davidson diagonalization with overlap
     ethr =  9.80E-11,  avg # of iterations =  1.1

     negative rho (up, down):  1.658E-03 0.000E+00

     total cpu time spent up to now is    17141.4 secs

     total energy              =   -2034.22305698 Ry
     estimated scf accuracy    <       0.00000002 Ry

     iteration # 76     ecut=    45.00 Ry     beta= 0.70
     Davidson diagonalization with overlap
     ethr =  1.54E-11,  avg # of iterations =  2.1

     negative rho (up, down):  1.657E-03 0.000E+00

     total cpu time spent up to now is    17175.3 secs

     total energy              =   -2034.22305698 Ry
     estimated scf accuracy    <       0.00000021 Ry

     iteration # 77     ecut=    45.00 Ry     beta= 0.70
     Davidson diagonalization with overlap
     ethr =  1.54E-11,  avg # of iterations =  1.1

     negative rho (up, down):  1.658E-03 0.000E+00

     total cpu time spent up to now is    17203.9 secs

     total energy              =   -2034.22305698 Ry
     estimated scf accuracy    <          2.8E-09 Ry

     iteration # 78     ecut=    45.00 Ry     beta= 0.70
     Davidson diagonalization with overlap
     ethr =  2.15E-12,  avg # of iterations =  5.0

     negative rho (up, down):  1.658E-03 0.000E+00

     total cpu time spent up to now is    17243.1 secs

     total energy              =   -2034.22305698 Ry
     estimated scf accuracy    <       0.00000164 Ry

     iteration # 79     ecut=    45.00 Ry     beta= 0.70
     Davidson diagonalization with overlap
     ethr =  2.15E-12,  avg # of iterations =  4.7

     negative rho (up, down):  1.657E-03 0.000E+00

     total cpu time spent up to now is    17280.7 secs

     total energy              =   -2034.22305698 Ry
     estimated scf accuracy    <       0.00000001 Ry

     iteration # 80     ecut=    45.00 Ry     beta= 0.70
     Davidson diagonalization with overlap
     ethr =  2.15E-12,  avg # of iterations =  2.9

     negative rho (up, down):  1.657E-03 0.000E+00

     total cpu time spent up to now is    17314.7 secs

     total energy              =   -2034.22305698 Ry
     estimated scf accuracy    <       0.00000071 Ry

     iteration # 81     ecut=    45.00 Ry     beta= 0.70
     Davidson diagonalization with overlap
     ethr =  2.15E-12,  avg # of iterations =  3.1

     negative rho (up, down):  1.658E-03 0.000E+00

     total cpu time spent up to now is    17349.9 secs

     total energy              =   -2034.22305698 Ry
     estimated scf accuracy    <       0.00000006 Ry

     iteration # 82     ecut=    45.00 Ry     beta= 0.70
     Davidson diagonalization with overlap
     ethr =  2.15E-12,  avg # of iterations =  2.2

     negative rho (up, down):  1.658E-03 0.000E+00

     total cpu time spent up to now is    17383.5 secs

     total energy              =   -2034.22305698 Ry
     estimated scf accuracy    <          3.9E-09 Ry

     iteration # 83     ecut=    45.00 Ry     beta= 0.70
     Davidson diagonalization with overlap
     ethr =  2.15E-12,  avg # of iterations =  1.1

     negative rho (up, down):  1.658E-03 0.000E+00

     total cpu time spent up to now is    17412.9 secs

     End of self-consistent calculation

          k = 0.0000 0.0000 0.0000 (  6457 PWs)   bands (ev):

   -80.5451 -80.4236 -80.4081 -80.3699 -80.3444 -80.3082 -80.2697 -79.9910
   -46.7130 -46.7130 -46.5711 -46.4999 -46.4999 -46.4960 -46.4854 -46.4566
   -46.4566 -46.4459 -46.3824 -46.3824 -46.3746 -46.3124 -46.3124 -46.2787
   -46.2590 -46.2590 -46.2446 -46.2308 -46.2308 -46.0374 -46.0008 -46.0008
    -1.5254  -0.7922   0.4633   1.8690   2.2706   2.7355   2.8578   2.9148
     3.2272   3.3861   3.5082   4.3013   4.4996   5.0467   5.0467   5.1329
     5.1457   5.1457   5.2512   5.2935   5.2935   5.4803   5.4803   5.6151
     5.8125   5.8125   5.8423   5.8580   6.1297   6.2666   6.3608   6.3608
     6.3850   6.6660   6.6983   6.7152   6.9011   6.9307   6.9307   7.1136
     7.3477   7.3656   7.3656   7.4222   7.7526

          k = 0.0000 0.2500 0.0000 (  6508 PWs)   bands (ev):

   -80.5252 -80.4089 -80.3985 -80.3682 -80.3499 -80.3194 -80.2828 -79.9900
   -46.7615 -46.6595 -46.5873 -46.5691 -46.5354 -46.5186 -46.4761 -46.4633
   -46.4449 -46.4391 -46.3932 -46.3806 -46.3584 -46.3284 -46.3222 -46.2931
   -46.2847 -46.2701 -46.2489 -46.2404 -46.2274 -46.0322 -46.0225 -46.0068
    -0.3200   0.3316   1.3639   2.3443   2.6149   2.9713   3.1374   3.2465
     3.4593   3.6400   3.9233   4.1597   4.4639   4.6044   4.7070   4.7227
     4.7363   4.9998   5.0089   5.1017   5.2340   5.4161   5.6171   5.6926
     5.7976   6.1095   6.2017   6.2471   6.2524   6.3155   6.3764   6.4473
     6.5239   6.6280   6.6515   6.7278   6.8452   6.9074   7.0634   7.0693
     7.2634   7.5002   7.5607   7.6974   7.7817

          k = 0.0000-0.5000 0.0000 (  6560 PWs)   bands (ev):

   -80.5018 -80.3867 -80.3831 -80.3786 -80.3476 -80.3415 -80.2973 -79.9889
   -46.7913 -46.6567 -46.5914 -46.5899 -46.5841 -46.5263 -46.5249 -46.4468
   -46.4077 -46.4035 -46.4001 -46.3740 -46.3697 -46.3554 -46.3520 -46.3457
   -46.3255 -46.2625 -46.2485 -46.2366 -46.2123 -46.0428 -46.0280 -46.0126
     1.8823   2.1490   2.3961   2.4036   2.4187   2.5576   2.8884   3.4588
     3.6547   3.9493   4.2650   4.2742   4.2750   4.3693   4.5896   4.7878
     4.8088   4.8448   5.2756   5.3592   5.3654   5.6277   5.6700   5.7953
     6.0448   6.0681   6.2654   6.4015   6.5310   6.5311   6.5504   6.5606
     6.7851   6.8686   7.0974   7.1412   7.5183   7.5620   7.5893   7.6190
     7.6903   7.7078   7.7165   7.7784   7.8443

          k = 0.2500 0.0000 0.0000 (  6508 PWs)   bands (ev):

   -80.5252 -80.4089 -80.3985 -80.3682 -80.3499 -80.3194 -80.2828 -79.9900
   -46.7615 -46.6595 -46.5873 -46.5691 -46.5354 -46.5186 -46.4761 -46.4633
   -46.4449 -46.4391 -46.3932 -46.3806 -46.3584 -46.3284 -46.3222 -46.2931
   -46.2847 -46.2701 -46.2489 -46.2404 -46.2274 -46.0322 -46.0225 -46.0068
    -0.3200   0.3316   1.3639   2.3443   2.6149   2.9713   3.1374   3.2465
     3.4593   3.6400   3.9233   4.1597   4.4639   4.6044   4.7070   4.7227
     4.7363   4.9998   5.0089   5.1017   5.2340   5.4161   5.6171   5.6926
     5.7976   6.1095   6.2017   6.2471   6.2524   6.3155   6.3764   6.4473
     6.5239   6.6280   6.6515   6.7278   6.8452   6.9074   7.0634   7.0693
     7.2634   7.5002   7.5607   7.6974   7.7817

          k = 0.2500 0.2500 0.0000 (  6498 PWs)   bands (ev):

   -80.5128 -80.3985 -80.3918 -80.3678 -80.3510 -80.3260 -80.2886 -79.9883
   -46.7715 -46.7140 -46.5862 -46.5470 -46.5406 -46.5240 -46.4957 -46.4920
   -46.4767 -46.4263 -46.4093 -46.3985 -46.3574 -46.3276 -46.3200 -46.2932
   -46.2788 -46.2700 -46.2645 -46.2316 -46.2253 -46.0389 -46.0214 -46.0211
     0.7337   1.3607   2.3195   3.0835   3.2570   3.3221   3.4274   3.6386
     3.7501   3.8280   3.9539   4.0689   4.0904   4.2198   4.3515   4.3757
     4.4850   4.4883   4.5588   4.7103   4.8531   5.0736   5.5683   5.6382
     5.9092   5.9347   6.1131   6.4401   6.4853   6.5358   6.5682   6.6240
     6.6320   6.6697   6.7667   6.8604   6.8653   6.9263   7.0379   7.1343
     7.2383   7.4879   7.5402   8.3745   9.3745

          k = 0.2500-0.5000 0.0000 (  6510 PWs)   bands (ev):

   -80.4993 -80.3844 -80.3809 -80.3763 -80.3454 -80.3392 -80.2949 -79.9867
   -46.8058 -46.7501 -46.5852 -46.5771 -46.5568 -46.5470 -46.5421 -46.4611
   -46.4508 -46.4440 -46.3933 -46.3930 -46.3755 -46.3256 -46.3254 -46.3004
   -46.2886 -46.2787 -46.2679 -46.2313 -46.2184 -46.0418 -46.0418 -46.0181
     2.4885   2.6287   2.8008   2.9751   3.1039   3.2525   3.3721   3.6491
     3.8110   3.8657   3.8961   4.1260   4.1991   4.2463   4.4212   4.5425
     4.5487   4.7312   4.7374   4.7909   5.2238   5.3801   5.4501   5.8351
     5.9024   6.3171   6.3734   6.3817   6.4655   6.5524   6.6189   6.6334
     6.7476   6.8035   6.8609   6.9005   6.9383   6.9675   7.1270   7.1356
     8.0254   8.0723   8.8206   8.8227   9.7554

          k = 0.2500-0.2500 0.0000 (  6498 PWs)   bands (ev):

   -80.5128 -80.3985 -80.3918 -80.3678 -80.3510 -80.3260 -80.2886 -79.9883
   -46.7715 -46.7140 -46.5862 -46.5470 -46.5406 -46.5240 -46.4957 -46.4920
   -46.4767 -46.4263 -46.4093 -46.3985 -46.3574 -46.3276 -46.3200 -46.2932
   -46.2788 -46.2700 -46.2645 -46.2316 -46.2253 -46.0389 -46.0214 -46.0211
     0.7337   1.3607   2.3195   3.0835   3.2570   3.3221   3.4274   3.6386
     3.7501   3.8280   3.9539   4.0689   4.0904   4.2198   4.3515   4.3757
     4.4850   4.4883   4.5588   4.7103   4.8531   5.0736   5.5683   5.6382
     5.9092   5.9347   6.1131   6.4401   6.4853   6.5358   6.5682   6.6240
     6.6320   6.6697   6.7667   6.8604   6.8653   6.9263   7.0379   7.1343
     7.2383   7.4879   7.5402   8.3745   9.3745

          k =-0.5000 0.0000 0.0000 (  6560 PWs)   bands (ev):

   -80.5018 -80.3867 -80.3831 -80.3786 -80.3476 -80.3415 -80.2973 -79.9889
   -46.7913 -46.6567 -46.5914 -46.5899 -46.5841 -46.5263 -46.5249 -46.4468
   -46.4077 -46.4035 -46.4001 -46.3740 -46.3697 -46.3554 -46.3520 -46.3457
   -46.3255 -46.2625 -46.2485 -46.2366 -46.2123 -46.0428 -46.0280 -46.0126
     1.8823   2.1490   2.3961   2.4036   2.4187   2.5576   2.8884   3.4588
     3.6547   3.9493   4.2650   4.2742   4.2750   4.3693   4.5896   4.7878
     4.8088   4.8448   5.2756   5.3592   5.3654   5.6277   5.6700   5.7953
     6.0448   6.0681   6.2654   6.4015   6.5310   6.5311   6.5504   6.5606
     6.7851   6.8686   7.0974   7.1412   7.5183   7.5620   7.5893   7.6190
     7.6903   7.7078   7.7165   7.7784   7.8443

          k =-0.5000 0.2500 0.0000 (  6510 PWs)   bands (ev):

   -80.4993 -80.3844 -80.3809 -80.3763 -80.3454 -80.3392 -80.2949 -79.9867
   -46.8058 -46.7501 -46.5852 -46.5771 -46.5568 -46.5470 -46.5421 -46.4611
   -46.4508 -46.4440 -46.3933 -46.3930 -46.3755 -46.3256 -46.3254 -46.3004
   -46.2886 -46.2787 -46.2679 -46.2313 -46.2184 -46.0418 -46.0418 -46.0181
     2.4885   2.6287   2.8008   2.9751   3.1039   3.2525   3.3721   3.6491
     3.8110   3.8657   3.8961   4.1260   4.1991   4.2463   4.4212   4.5425
     4.5487   4.7312   4.7374   4.7909   5.2238   5.3801   5.4501   5.8351
     5.9024   6.3171   6.3734   6.3817   6.4655   6.5524   6.6189   6.6334
     6.7476   6.8035   6.8609   6.9005   6.9383   6.9675   7.1270   7.1356
     8.0254   8.0723   8.8206   8.8227   9.7554

          k =-0.5000-0.5000 0.0000 (  6576 PWs)   bands (ev):

   -80.4969 -80.3823 -80.3787 -80.3741 -80.3432 -80.3371 -80.2926 -79.9846
   -46.8355 -46.8355 -46.6015 -46.6015 -46.5381 -46.5381 -46.5187 -46.4514
   -46.4386 -46.4386 -46.4109 -46.3998 -46.3792 -46.3572 -46.3422 -46.3422
   -46.2963 -46.2691 -46.2691 -46.2170 -46.2170 -46.0431 -46.0417 -46.0417
     2.3487   2.5111   2.8906   2.9971   3.6232   3.6355   3.7276   3.7276
     3.9517   3.9517   3.9838   3.9838   4.1675   4.2443   4.2443   4.4036
     4.4691   4.4691   4.9436   4.9436   5.8063   5.8063   5.9479   6.3827
     6.5507   6.6304   6.6648   6.7203   6.7630   6.8038   6.8066   6.8077
     6.8111   6.8341   6.8498   6.8621   6.9343   7.0788   7.0788   7.1860
     8.0783   8.0783   9.7868   9.7868  11.6551

     the Fermi energy is     6.6530 ev

!    total energy              =   -2034.22305698 Ry
     estimated scf accuracy    <          6.0E-10 Ry
     smearing contrib. (-TS)   =      -0.01654402 Ry
     internal energy E=F+TS    =   -2034.20651296 Ry

     The total energy is F=E-TS. E is the sum of the following terms:
     one-electron contribution =  -14273.29238365 Ry
     hartree contribution      =    7160.40798575 Ry
     xc contribution           =    -277.29455614 Ry
     ewald contribution        =    5355.97244108 Ry

     convergence has been achieved in  83 iterations

     negative rho (up, down):  1.658E-03 0.000E+00

     Forces acting on atoms (cartesian axes, Ry/au):

     atom    1 type  1   force =     0.00000000    0.00000000   -0.03253968
     atom    2 type  1   force =     0.00000000    0.00000000    0.06381663
     atom    3 type  1   force =     0.00000000    0.00000000    0.00841645
     atom    4 type  1   force =     0.00000000   -0.00000000    0.00164241
     atom    5 type  1   force =    -0.00000000   -0.00000000   -0.00661752
     atom    6 type  1   force =    -0.00000000   -0.00000000   -0.01817187
     atom    7 type  1   force =     0.00000000    0.00000000    0.00561850
     atom    8 type  1   force =    -0.00000000   -0.00000000   -0.02216492

     Total force =     0.005618     Total SCF correction =     0.000078
     Energy error            =      8.8E-04
     Gradient error          =      5.6E-03

     number of scf cycles    =   7
     number of bfgs steps    =   6

     energy   old            =   -2034.2221739150 Ry
     energy   new            =   -2034.2230569839 Ry

     CASE: energy  _new < energy  _old

     new trust radius        =       0.0315895990 bohr
     new conv_thr            =       0.0000000006 Ry


ATOMIC_POSITIONS (angstrom)
Fe            0.0000000000        0.0000000000        2.1525000000    0   0   0
Fe            1.4350000000        1.4350000000        0.7175000000    0   0   0
Fe            0.0000000000        0.0000000000        5.0225000000    0   0   0
Fe            1.4350000000        1.4350000000        3.5875000000    0   0   0
Fe            0.0000000000        0.0000000000        7.8925000000    0   0   0
Fe            1.4350000000        1.4350000000        6.4575000000    0   0   0
Fe           -0.0000000275       -0.0000000139       10.3691795510
Fe            1.4350000000        1.4350000000        9.3275000000    0   0   0



     Writing output data file ./tmp/fe_clean_fe_surface.save/
     NEW-OLD atomic charge density approx. for the potential

     Check: negative core charge=   -0.000078

     negative rho (up, down):  1.660E-03 0.000E+00

     total cpu time spent up to now is    17424.4 secs

     Self-consistent Calculation

     iteration #  1     ecut=    45.00 Ry     beta= 0.70
     Davidson diagonalization with overlap
     ethr =  1.00E-06,  avg # of iterations =  6.3

     negative rho (up, down):  1.648E-03 0.000E+00

     total cpu time spent up to now is    17491.8 secs

     total energy              =   -2034.21627976 Ry
     estimated scf accuracy    <       0.00790628 Ry

     iteration #  2     ecut=    45.00 Ry     beta= 0.70
     Davidson diagonalization with overlap
     ethr =  6.18E-06,  avg # of iterations = 10.1

     negative rho (up, down):  2.311E-02 0.000E+00

     total cpu time spent up to now is    17555.7 secs

     total energy              =   -2033.75205849 Ry
     estimated scf accuracy    <     176.95469053 Ry

     iteration #  3     ecut=    45.00 Ry     beta= 0.70
     Davidson diagonalization with overlap
     ethr =  6.18E-06,  avg # of iterations =  9.1

     negative rho (up, down):  1.001E-02 0.000E+00

     total cpu time spent up to now is    17604.4 secs

     total energy              =   -2034.12768891 Ry
     estimated scf accuracy    <       7.34124741 Ry

     iteration #  4     ecut=    45.00 Ry     beta= 0.70
     Davidson diagonalization with overlap
     ethr =  6.18E-06,  avg # of iterations =  7.5

     negative rho (up, down):  9.201E-03 0.000E+00

     total cpu time spent up to now is    17656.3 secs

     total energy              =   -2034.19896175 Ry
     estimated scf accuracy    <       2.71326834 Ry

     iteration #  5     ecut=    45.00 Ry     beta= 0.70
     Davidson diagonalization with overlap
     ethr =  6.18E-06,  avg # of iterations =  5.3

     negative rho (up, down):  4.666E-03 0.000E+00

     total cpu time spent up to now is    17694.6 secs

     total energy              =   -2034.21307760 Ry
     estimated scf accuracy    <       1.42143541 Ry

     iteration #  6     ecut=    45.00 Ry     beta= 0.70
     Davidson diagonalization with overlap
     ethr =  6.18E-06,  avg # of iterations =  3.9

     negative rho (up, down):  2.364E-03 0.000E+00

     total cpu time spent up to now is    17728.9 secs

     total energy              =   -2034.22198304 Ry
     estimated scf accuracy    <       0.06854374 Ry

     iteration #  7     ecut=    45.00 Ry     beta= 0.70
     Davidson diagonalization with overlap
     ethr =  6.18E-06,  avg # of iterations =  1.2

     negative rho (up, down):  1.863E-03 0.000E+00

     total cpu time spent up to now is    17758.2 secs

     total energy              =   -2034.22282640 Ry
     estimated scf accuracy    <       0.00880856 Ry

     iteration #  8     ecut=    45.00 Ry     beta= 0.70
     Davidson diagonalization with overlap
     ethr =  6.18E-06,  avg # of iterations =  1.3

     negative rho (up, down):  1.829E-03 0.000E+00

     total cpu time spent up to now is    17786.6 secs

     total energy              =   -2034.22276515 Ry
     estimated scf accuracy    <       0.02298056 Ry

     iteration #  9     ecut=    45.00 Ry     beta= 0.70
     Davidson diagonalization with overlap
     ethr =  6.18E-06,  avg # of iterations =  1.0

     negative rho (up, down):  1.708E-03 0.000E+00

     total cpu time spent up to now is    17815.1 secs

     total energy              =   -2034.22308042 Ry
     estimated scf accuracy    <       0.00099248 Ry

     iteration # 10     ecut=    45.00 Ry     beta= 0.70
     Davidson diagonalization with overlap
     ethr =  7.75E-07,  avg # of iterations =  2.5

     negative rho (up, down):  1.663E-03 0.000E+00

     total cpu time spent up to now is    17846.0 secs

     total energy              =   -2034.22311129 Ry
     estimated scf accuracy    <       0.00144239 Ry

     iteration # 11     ecut=    45.00 Ry     beta= 0.70
     Davidson diagonalization with overlap
     ethr =  7.75E-07,  avg # of iterations =  1.0

     negative rho (up, down):  1.656E-03 0.000E+00

     total cpu time spent up to now is    17873.1 secs

     total energy              =   -2034.22313939 Ry
     estimated scf accuracy    <       0.00086755 Ry

     iteration # 12     ecut=    45.00 Ry     beta= 0.70
     Davidson diagonalization with overlap
     ethr =  6.78E-07,  avg # of iterations =  1.1

     negative rho (up, down):  1.657E-03 0.000E+00

     total cpu time spent up to now is    17900.7 secs

     total energy              =   -2034.22314430 Ry
     estimated scf accuracy    <       0.00056049 Ry

     iteration # 13     ecut=    45.00 Ry     beta= 0.70
     Davidson diagonalization with overlap
     ethr =  4.38E-07,  avg # of iterations =  1.0

     negative rho (up, down):  1.660E-03 0.000E+00

     total cpu time spent up to now is    17928.2 secs

     total energy              =   -2034.22313511 Ry
     estimated scf accuracy    <       0.00053880 Ry

     iteration # 14     ecut=    45.00 Ry     beta= 0.70
     Davidson diagonalization with overlap
     ethr =  4.21E-07,  avg # of iterations =  1.6

     negative rho (up, down):  1.729E-03 0.000E+00

     total cpu time spent up to now is    17958.4 secs

     total energy              =   -2034.22300800 Ry
     estimated scf accuracy    <       0.02856598 Ry

     iteration # 15     ecut=    45.00 Ry     beta= 0.70
     Davidson diagonalization with overlap
     ethr =  4.21E-07,  avg # of iterations =  1.2

     negative rho (up, down):  1.688E-03 0.000E+00

     total cpu time spent up to now is    17986.7 secs

     total energy              =   -2034.22310739 Ry
     estimated scf accuracy    <       0.00544806 Ry

     iteration # 16     ecut=    45.00 Ry     beta= 0.70
     Davidson diagonalization with overlap
     ethr =  4.21E-07,  avg # of iterations =  1.0

     negative rho (up, down):  1.659E-03 0.000E+00

     total cpu time spent up to now is    18014.2 secs

     total energy              =   -2034.22314337 Ry
     estimated scf accuracy    <       0.00051208 Ry

     iteration # 17     ecut=    45.00 Ry     beta= 0.70
     Davidson diagonalization with overlap
     ethr =  4.00E-07,  avg # of iterations =  1.0

     negative rho (up, down):  1.658E-03 0.000E+00

     total cpu time spent up to now is    18041.4 secs

     total energy              =   -2034.22314629 Ry
     estimated scf accuracy    <       0.00029513 Ry

     iteration # 18     ecut=    45.00 Ry     beta= 0.70
     Davidson diagonalization with overlap
     ethr =  2.31E-07,  avg # of iterations =  1.1

     negative rho (up, down):  1.665E-03 0.000E+00

     total cpu time spent up to now is    18069.9 secs

     total energy              =   -2034.22312024 Ry
     estimated scf accuracy    <       0.00185783 Ry

     iteration # 19     ecut=    45.00 Ry     beta= 0.70
     Davidson diagonalization with overlap
     ethr =  2.31E-07,  avg # of iterations =  1.0

     negative rho (up, down):  1.657E-03 0.000E+00

     total cpu time spent up to now is    18098.4 secs

     total energy              =   -2034.22314829 Ry
     estimated scf accuracy    <       0.00002488 Ry

     iteration # 20     ecut=    45.00 Ry     beta= 0.70
     Davidson diagonalization with overlap
     ethr =  1.94E-08,  avg # of iterations =  2.0

     negative rho (up, down):  1.655E-03 0.000E+00

     total cpu time spent up to now is    18132.9 secs

     total energy              =   -2034.22314678 Ry
     estimated scf accuracy    <       0.00011512 Ry

     iteration # 21     ecut=    45.00 Ry     beta= 0.70
     Davidson diagonalization with overlap
     ethr =  1.94E-08,  avg # of iterations =  1.3

     negative rho (up, down):  1.655E-03 0.000E+00

     total cpu time spent up to now is    18163.0 secs

     total energy              =   -2034.22314965 Ry
     estimated scf accuracy    <       0.00005493 Ry

     iteration # 22     ecut=    45.00 Ry     beta= 0.70
     Davidson diagonalization with overlap
     ethr =  1.94E-08,  avg # of iterations =  2.1

     negative rho (up, down):  1.655E-03 0.000E+00

     total cpu time spent up to now is    18195.1 secs

     total energy              =   -2034.22314945 Ry
     estimated scf accuracy    <       0.00005078 Ry

     iteration # 23     ecut=    45.00 Ry     beta= 0.70
     Davidson diagonalization with overlap
     ethr =  1.94E-08,  avg # of iterations =  2.2

     negative rho (up, down):  1.658E-03 0.000E+00

     total cpu time spent up to now is    18227.7 secs

     total energy              =   -2034.22314230 Ry
     estimated scf accuracy    <       0.00047273 Ry

     iteration # 24     ecut=    45.00 Ry     beta= 0.70
     Davidson diagonalization with overlap
     ethr =  1.94E-08,  avg # of iterations =  1.8

     negative rho (up, down):  1.656E-03 0.000E+00

     total cpu time spent up to now is    18258.7 secs

     total energy              =   -2034.22314950 Ry
     estimated scf accuracy    <       0.00000183 Ry

     iteration # 25     ecut=    45.00 Ry     beta= 0.70
     Davidson diagonalization with overlap
     ethr =  1.43E-09,  avg # of iterations =  5.8

     negative rho (up, down):  1.676E-03 0.000E+00

     total cpu time spent up to now is    18300.3 secs

     total energy              =   -2034.22311415 Ry
     estimated scf accuracy    <       0.00840647 Ry

     iteration # 26     ecut=    45.00 Ry     beta= 0.70
     Davidson diagonalization with overlap
     ethr =  1.43E-09,  avg # of iterations =  5.8

     negative rho (up, down):  1.666E-03 0.000E+00

     total cpu time spent up to now is    18347.6 secs

     total energy              =   -2034.22313218 Ry
     estimated scf accuracy    <       0.00319846 Ry

     iteration # 27     ecut=    45.00 Ry     beta= 0.70
     Davidson diagonalization with overlap
     ethr =  1.43E-09,  avg # of iterations =  5.4

     negative rho (up, down):  1.657E-03 0.000E+00

     total cpu time spent up to now is    18388.2 secs

     total energy              =   -2034.22314906 Ry
     estimated scf accuracy    <       0.00008021 Ry

     iteration # 28     ecut=    45.00 Ry     beta= 0.70
     Davidson diagonalization with overlap
     ethr =  1.43E-09,  avg # of iterations =  3.0

     negative rho (up, down):  1.655E-03 0.000E+00

     total cpu time spent up to now is    18421.7 secs

     total energy              =   -2034.22314969 Ry
     estimated scf accuracy    <       0.00002191 Ry

     iteration # 29     ecut=    45.00 Ry     beta= 0.70
     Davidson diagonalization with overlap
     ethr =  1.43E-09,  avg # of iterations =  1.3

     negative rho (up, down):  1.655E-03 0.000E+00

     total cpu time spent up to now is    18450.3 secs

     total energy              =   -2034.22315010 Ry
     estimated scf accuracy    <       0.00000026 Ry

     iteration # 30     ecut=    45.00 Ry     beta= 0.70
     Davidson diagonalization with overlap
     ethr =  2.01E-10,  avg # of iterations =  3.6

     negative rho (up, down):  1.655E-03 0.000E+00

     total cpu time spent up to now is    18486.0 secs

     total energy              =   -2034.22314997 Ry
     estimated scf accuracy    <       0.00000574 Ry

     iteration # 31     ecut=    45.00 Ry     beta= 0.70
     Davidson diagonalization with overlap
     ethr =  2.01E-10,  avg # of iterations =  3.3

     negative rho (up, down):  1.655E-03 0.000E+00

     total cpu time spent up to now is    18522.0 secs

     total energy              =   -2034.22315010 Ry
     estimated scf accuracy    <       0.00000358 Ry

     iteration # 32     ecut=    45.00 Ry     beta= 0.70
     Davidson diagonalization with overlap
     ethr =  2.01E-10,  avg # of iterations =  1.3

     negative rho (up, down):  1.655E-03 0.000E+00

     total cpu time spent up to now is    18551.0 secs

     total energy              =   -2034.22315012 Ry
     estimated scf accuracy    <       0.00000004 Ry

     iteration # 33     ecut=    45.00 Ry     beta= 0.70
     Davidson diagonalization with overlap
     ethr =  3.41E-11,  avg # of iterations =  2.3

     negative rho (up, down):  1.655E-03 0.000E+00

     total cpu time spent up to now is    18583.6 secs

     total energy              =   -2034.22315012 Ry
     estimated scf accuracy    <       0.00000016 Ry

     iteration # 34     ecut=    45.00 Ry     beta= 0.70
     Davidson diagonalization with overlap
     ethr =  3.41E-11,  avg # of iterations =  3.1

     negative rho (up, down):  1.655E-03 0.000E+00

     total cpu time spent up to now is    18618.0 secs

     total energy              =   -2034.22315012 Ry
     estimated scf accuracy    <       0.00000122 Ry

     iteration # 35     ecut=    45.00 Ry     beta= 0.70
     Davidson diagonalization with overlap
     ethr =  3.41E-11,  avg # of iterations =  3.6

     negative rho (up, down):  1.655E-03 0.000E+00

     total cpu time spent up to now is    18652.3 secs

     total energy              =   -2034.22315010 Ry
     estimated scf accuracy    <       0.00000493 Ry

     iteration # 36     ecut=    45.00 Ry     beta= 0.70
     Davidson diagonalization with overlap
     ethr =  3.41E-11,  avg # of iterations =  2.5

     negative rho (up, down):  1.655E-03 0.000E+00

     total cpu time spent up to now is    18683.5 secs

     total energy              =   -2034.22315012 Ry
     estimated scf accuracy    <       0.00000141 Ry

     iteration # 37     ecut=    45.00 Ry     beta= 0.70
     Davidson diagonalization with overlap
     ethr =  3.41E-11,  avg # of iterations =  1.8

     negative rho (up, down):  1.655E-03 0.000E+00

     total cpu time spent up to now is    18713.9 secs

     total energy              =   -2034.22315012 Ry
     estimated scf accuracy    <       0.00000024 Ry

     iteration # 38     ecut=    45.00 Ry     beta= 0.70
     Davidson diagonalization with overlap
     ethr =  3.41E-11,  avg # of iterations =  2.7

     negative rho (up, down):  1.655E-03 0.000E+00

     total cpu time spent up to now is    18749.1 secs

     total energy              =   -2034.22315011 Ry
     estimated scf accuracy    <       0.00000058 Ry

     iteration # 39     ecut=    45.00 Ry     beta= 0.70
     Davidson diagonalization with overlap
     ethr =  3.41E-11,  avg # of iterations =  2.0

     negative rho (up, down):  1.655E-03 0.000E+00

     total cpu time spent up to now is    18784.1 secs

     total energy              =   -2034.22315012 Ry
     estimated scf accuracy    <       0.00000027 Ry

     iteration # 40     ecut=    45.00 Ry     beta= 0.70
     Davidson diagonalization with overlap
     ethr =  3.41E-11,  avg # of iterations =  1.8

     negative rho (up, down):  1.655E-03 0.000E+00

     total cpu time spent up to now is    18819.4 secs

     total energy              =   -2034.22315012 Ry
     estimated scf accuracy    <       0.00000018 Ry

     iteration # 41     ecut=    45.00 Ry     beta= 0.70
     Davidson diagonalization with overlap
     ethr =  3.41E-11,  avg # of iterations =  1.0

     negative rho (up, down):  1.655E-03 0.000E+00

     total cpu time spent up to now is    18846.8 secs

     total energy              =   -2034.22315012 Ry
     estimated scf accuracy    <       0.00000007 Ry

     iteration # 42     ecut=    45.00 Ry     beta= 0.70
     Davidson diagonalization with overlap
     ethr =  3.41E-11,  avg # of iterations =  1.8

     negative rho (up, down):  1.655E-03 0.000E+00

     total cpu time spent up to now is    18878.8 secs

     total energy              =   -2034.22315012 Ry
     estimated scf accuracy    <       0.00000013 Ry

     iteration # 43     ecut=    45.00 Ry     beta= 0.70
     Davidson diagonalization with overlap
     ethr =  3.41E-11,  avg # of iterations =  2.0

     negative rho (up, down):  1.655E-03 0.000E+00

     total cpu time spent up to now is    18911.9 secs

     total energy              =   -2034.22315012 Ry
     estimated scf accuracy    <       0.00000013 Ry

     iteration # 44     ecut=    45.00 Ry     beta= 0.70
     Davidson diagonalization with overlap
     ethr =  3.41E-11,  avg # of iterations =  1.1

     negative rho (up, down):  1.655E-03 0.000E+00

     total cpu time spent up to now is    18939.7 secs

     total energy              =   -2034.22315012 Ry
     estimated scf accuracy    <       0.00000003 Ry

     iteration # 45     ecut=    45.00 Ry     beta= 0.70
     Davidson diagonalization with overlap
     ethr =  2.13E-11,  avg # of iterations =  1.5

     negative rho (up, down):  1.655E-03 0.000E+00

     total cpu time spent up to now is    18969.5 secs

     total energy              =   -2034.22315012 Ry
     estimated scf accuracy    <       0.00000044 Ry

     iteration # 46     ecut=    45.00 Ry     beta= 0.70
     Davidson diagonalization with overlap
     ethr =  2.13E-11,  avg # of iterations =  2.6

     negative rho (up, down):  1.655E-03 0.000E+00

     total cpu time spent up to now is    19000.6 secs

     total energy              =   -2034.22315011 Ry
     estimated scf accuracy    <       0.00000171 Ry

     iteration # 47     ecut=    45.00 Ry     beta= 0.70
     Davidson diagonalization with overlap
     ethr =  2.13E-11,  avg # of iterations =  2.7

     negative rho (up, down):  1.655E-03 0.000E+00

     total cpu time spent up to now is    19032.1 secs

     total energy              =   -2034.22315012 Ry
     estimated scf accuracy    <       0.00000012 Ry

     iteration # 48     ecut=    45.00 Ry     beta= 0.70
     Davidson diagonalization with overlap
     ethr =  2.13E-11,  avg # of iterations =  1.3

     negative rho (up, down):  1.655E-03 0.000E+00

     total cpu time spent up to now is    19060.8 secs

     total energy              =   -2034.22315012 Ry
     estimated scf accuracy    <       0.00000009 Ry

     iteration # 49     ecut=    45.00 Ry     beta= 0.70
     Davidson diagonalization with overlap
     ethr =  2.13E-11,  avg # of iterations =  1.0

     negative rho (up, down):  1.655E-03 0.000E+00

     total cpu time spent up to now is    19088.1 secs

     total energy              =   -2034.22315012 Ry
     estimated scf accuracy    <       0.00000001 Ry

     iteration # 50     ecut=    45.00 Ry     beta= 0.70
     Davidson diagonalization with overlap
     ethr =  1.15E-11,  avg # of iterations =  1.6

     negative rho (up, down):  1.655E-03 0.000E+00

     total cpu time spent up to now is    19118.2 secs

     total energy              =   -2034.22315012 Ry
     estimated scf accuracy    <       0.00000005 Ry

     iteration # 51     ecut=    45.00 Ry     beta= 0.70
     Davidson diagonalization with overlap
     ethr =  1.15E-11,  avg # of iterations =  1.3

     negative rho (up, down):  1.655E-03 0.000E+00

     total cpu time spent up to now is    19146.8 secs

     total energy              =   -2034.22315012 Ry
     estimated scf accuracy    <       0.00000005 Ry

     iteration # 52     ecut=    45.00 Ry     beta= 0.70
     Davidson diagonalization with overlap
     ethr =  1.15E-11,  avg # of iterations =  1.0

     negative rho (up, down):  1.655E-03 0.000E+00

     total cpu time spent up to now is    19174.0 secs

     total energy              =   -2034.22315012 Ry
     estimated scf accuracy    <          1.1E-09 Ry

     iteration # 53     ecut=    45.00 Ry     beta= 0.70
     Davidson diagonalization with overlap
     ethr =  8.80E-13,  avg # of iterations =  2.7

     negative rho (up, down):  1.655E-03 0.000E+00

     total cpu time spent up to now is    19206.6 secs

     total energy              =   -2034.22315013 Ry
     estimated scf accuracy    <          4.4E-09 Ry

     iteration # 54     ecut=    45.00 Ry     beta= 0.70
     Davidson diagonalization with overlap
     ethr =  8.80E-13,  avg # of iterations =  2.3

     negative rho (up, down):  1.655E-03 0.000E+00

     total cpu time spent up to now is    19239.0 secs

     total energy              =   -2034.22315012 Ry
     estimated scf accuracy    <          6.6E-09 Ry

     iteration # 55     ecut=    45.00 Ry     beta= 0.70
     Davidson diagonalization with overlap
     ethr =  8.80E-13,  avg # of iterations =  2.9

     negative rho (up, down):  1.655E-03 0.000E+00

     total cpu time spent up to now is    19272.6 secs

     total energy              =   -2034.22315012 Ry
     estimated scf accuracy    <       0.00000007 Ry

     iteration # 56     ecut=    45.00 Ry     beta= 0.70
     Davidson diagonalization with overlap
     ethr =  8.80E-13,  avg # of iterations =  2.3

     negative rho (up, down):  1.655E-03 0.000E+00

     total cpu time spent up to now is    19303.0 secs

     total energy              =   -2034.22315012 Ry
     estimated scf accuracy    <       0.00000002 Ry

     iteration # 57     ecut=    45.00 Ry     beta= 0.70
     Davidson diagonalization with overlap
     ethr =  8.80E-13,  avg # of iterations =  1.2

     negative rho (up, down):  1.655E-03 0.000E+00

     total cpu time spent up to now is    19359.8 secs

     total energy              =   -2034.22315013 Ry
     estimated scf accuracy    <          2.4E-09 Ry

     iteration # 58     ecut=    45.00 Ry     beta= 0.70
     Davidson diagonalization with overlap
     ethr =  8.80E-13,  avg # of iterations =  1.1

     negative rho (up, down):  1.655E-03 0.000E+00

     total cpu time spent up to now is    19388.5 secs

     total energy              =   -2034.22315012 Ry
     estimated scf accuracy    <          6.5E-09 Ry

     iteration # 59     ecut=    45.00 Ry     beta= 0.70
     Davidson diagonalization with overlap
     ethr =  8.80E-13,  avg # of iterations =  2.2

     negative rho (up, down):  1.655E-03 0.000E+00

     total cpu time spent up to now is    19422.6 secs

     total energy              =   -2034.22315012 Ry
     estimated scf accuracy    <       0.00000011 Ry

     iteration # 60     ecut=    45.00 Ry     beta= 0.70
     Davidson diagonalization with overlap
     ethr =  8.80E-13,  avg # of iterations =  2.1

     negative rho (up, down):  1.655E-03 0.000E+00

     total cpu time spent up to now is    19455.6 secs

     total energy              =   -2034.22315012 Ry
     estimated scf accuracy    <          3.1E-09 Ry

     iteration # 61     ecut=    45.00 Ry     beta= 0.70
     Davidson diagonalization with overlap
     ethr =  8.80E-13,  avg # of iterations =  1.0

     negative rho (up, down):  1.655E-03 0.000E+00

     total cpu time spent up to now is    19483.3 secs

     End of self-consistent calculation

          k = 0.0000 0.0000 0.0000 (  6457 PWs)   bands (ev):

   -80.5408 -80.4259 -80.4108 -80.3715 -80.3461 -80.3116 -80.2630 -79.9940
   -46.7003 -46.7003 -46.5658 -46.5028 -46.5028 -46.4986 -46.4880 -46.4593
   -46.4593 -46.4460 -46.3849 -46.3849 -46.3761 -46.3140 -46.3140 -46.2790
   -46.2617 -46.2617 -46.2434 -46.2285 -46.2285 -46.0401 -46.0039 -46.0039
    -1.5229  -0.7894   0.4630   1.8665   2.3127   2.7359   2.8546   2.9151
     3.2190   3.3801   3.5091   4.3002   4.5541   5.0546   5.0546   5.1290
     5.1430   5.1430   5.2492   5.2881   5.2881   5.4783   5.4783   5.6142
     5.8185   5.8185   5.8514   5.8724   6.1280   6.2636   6.3650   6.3650
     6.3774   6.6627   6.6938   6.6939   6.8958   6.9331   6.9331   7.1088
     7.3423   7.3643   7.3643   7.4177   7.7255

          k = 0.0000 0.2500 0.0000 (  6508 PWs)   bands (ev):

   -80.5222 -80.4110 -80.4014 -80.3692 -80.3523 -80.3228 -80.2748 -79.9930
   -46.7497 -46.6494 -46.5877 -46.5683 -46.5377 -46.5187 -46.4779 -46.4663
   -46.4444 -46.4419 -46.3958 -46.3832 -46.3593 -46.3298 -46.3239 -46.2950
   -46.2801 -46.2730 -46.2501 -46.2385 -46.2264 -46.0349 -46.0256 -46.0099
    -0.3174   0.3342   1.3650   2.3452   2.6502   2.9715   3.1377   3.2467
     3.4583   3.6405   3.9681   4.1610   4.4638   4.6042   4.7065   4.7221
     4.7632   4.9977   5.0119   5.0991   5.2336   5.4171   5.6141   5.6959
     5.7952   6.1087   6.1983   6.2407   6.2559   6.3082   6.3665   6.4445
     6.5223   6.6198   6.6481   6.7265   6.8396   6.9073   7.0511   7.0628
     7.2656   7.4944   7.5588   7.6900   7.7636

          k = 0.0000-0.5000 0.0000 (  6560 PWs)   bands (ev):

   -80.5006 -80.3899 -80.3858 -80.3770 -80.3518 -80.3445 -80.2877 -79.9919
   -46.7813 -46.6526 -46.5933 -46.5919 -46.5792 -46.5278 -46.5262 -46.4474
   -46.4109 -46.4031 -46.4029 -46.3776 -46.3676 -46.3584 -46.3469 -46.3433
   -46.3269 -46.2652 -46.2519 -46.2325 -46.2128 -46.0459 -46.0306 -46.0157
     1.9087   2.1598   2.3936   2.4008   2.4157   2.5547   2.9074   3.4556
     3.6850   3.9628   4.2645   4.2787   4.2863   4.3879   4.5873   4.7916
     4.8074   4.8442   5.2801   5.3598   5.3687   5.6248   5.6676   5.7915
     6.0430   6.0677   6.2668   6.3995   6.5287   6.5290   6.5481   6.5561
     6.7705   6.8483   7.0939   7.1345   7.5154   7.5570   7.5860   7.6196
     7.6877   7.7067   7.7123   7.7780   7.8348

          k = 0.2500 0.0000 0.0000 (  6508 PWs)   bands (ev):

   -80.5222 -80.4110 -80.4014 -80.3692 -80.3523 -80.3228 -80.2748 -79.9930
   -46.7497 -46.6494 -46.5877 -46.5683 -46.5377 -46.5187 -46.4779 -46.4663
   -46.4444 -46.4419 -46.3958 -46.3832 -46.3593 -46.3298 -46.3239 -46.2950
   -46.2801 -46.2730 -46.2501 -46.2385 -46.2264 -46.0349 -46.0256 -46.0099
    -0.3174   0.3342   1.3650   2.3452   2.6502   2.9715   3.1377   3.2467
     3.4583   3.6405   3.9681   4.1610   4.4638   4.6042   4.7065   4.7221
     4.7632   4.9977   5.0119   5.0991   5.2336   5.4171   5.6141   5.6959
     5.7952   6.1087   6.1983   6.2407   6.2559   6.3082   6.3665   6.4445
     6.5223   6.6198   6.6481   6.7265   6.8396   6.9073   7.0511   7.0628
     7.2656   7.4944   7.5588   7.6900   7.7636

          k = 0.2500 0.2500 0.0000 (  6498 PWs)   bands (ev):

   -80.5106 -80.4004 -80.3948 -80.3680 -80.3541 -80.3295 -80.2799 -79.9913
   -46.7575 -46.7048 -46.5832 -46.5499 -46.5413 -46.5262 -46.4984 -46.4939
   -46.4790 -46.4291 -46.4116 -46.3956 -46.3581 -46.3292 -46.3204 -46.2941
   -46.2788 -46.2739 -46.2673 -46.2287 -46.2242 -46.0417 -46.0244 -46.0243
     0.7369   1.3638   2.3209   3.0859   3.2895   3.3256   3.4506   3.6508
     3.7563   3.8252   3.9513   4.0713   4.0878   4.2209   4.3528   4.3726
     4.4844   4.4862   4.5579   4.7086   4.8490   5.0736   5.5731   5.6480
     5.9063   5.9465   6.1180   6.4363   6.4862   6.5327   6.5650   6.6193
     6.6303   6.6667   6.7645   6.8563   6.8622   6.9212   7.0286   7.1348
     7.2191   7.4869   7.5355   8.3665   9.3636

          k = 0.2500-0.5000 0.0000 (  6510 PWs)   bands (ev):

   -80.4981 -80.3876 -80.3835 -80.3747 -80.3495 -80.3422 -80.2853 -79.9897
   -46.7930 -46.7368 -46.5847 -46.5780 -46.5600 -46.5503 -46.5453 -46.4551
   -46.4524 -46.4473 -46.3960 -46.3954 -46.3780 -46.3286 -46.3196 -46.3017
   -46.2906 -46.2819 -46.2714 -46.2307 -46.2158 -46.0449 -46.0445 -46.0211
     2.4967   2.6370   2.8158   2.9749   3.1015   3.2510   3.3892   3.6470
     3.8174   3.8739   3.8995   4.1278   4.1992   4.2518   4.4232   4.5396
     4.5477   4.7292   4.7334   4.7890   5.2213   5.3721   5.4633   5.8597
     5.8995   6.3157   6.3682   6.3913   6.4628   6.5450   6.6158   6.6317
     6.7446   6.8004   6.8592   6.8975   6.9365   6.9605   7.1236   7.1333
     8.0245   8.0710   8.8182   8.8207   9.7519

          k = 0.2500-0.2500 0.0000 (  6498 PWs)   bands (ev):

   -80.5106 -80.4004 -80.3948 -80.3680 -80.3541 -80.3295 -80.2799 -79.9913
   -46.7575 -46.7048 -46.5832 -46.5499 -46.5413 -46.5262 -46.4984 -46.4939
   -46.4790 -46.4291 -46.4116 -46.3956 -46.3581 -46.3292 -46.3204 -46.2941
   -46.2788 -46.2739 -46.2673 -46.2287 -46.2242 -46.0417 -46.0244 -46.0243
     0.7369   1.3638   2.3209   3.0859   3.2895   3.3256   3.4506   3.6508
     3.7563   3.8252   3.9513   4.0713   4.0878   4.2209   4.3528   4.3726
     4.4844   4.4862   4.5579   4.7086   4.8490   5.0736   5.5731   5.6480
     5.9063   5.9465   6.1180   6.4363   6.4862   6.5327   6.5650   6.6193
     6.6303   6.6667   6.7645   6.8563   6.8622   6.9212   7.0286   7.1348
     7.2191   7.4869   7.5355   8.3665   9.3636

          k =-0.5000 0.0000 0.0000 (  6560 PWs)   bands (ev):

   -80.5006 -80.3899 -80.3858 -80.3770 -80.3518 -80.3445 -80.2877 -79.9919
   -46.7813 -46.6526 -46.5933 -46.5919 -46.5792 -46.5278 -46.5262 -46.4474
   -46.4109 -46.4031 -46.4029 -46.3776 -46.3676 -46.3584 -46.3469 -46.3433
   -46.3269 -46.2652 -46.2519 -46.2325 -46.2128 -46.0459 -46.0306 -46.0157
     1.9087   2.1598   2.3936   2.4008   2.4157   2.5547   2.9074   3.4556
     3.6850   3.9628   4.2645   4.2787   4.2863   4.3879   4.5873   4.7916
     4.8074   4.8442   5.2801   5.3598   5.3687   5.6248   5.6676   5.7915
     6.0430   6.0677   6.2668   6.3995   6.5287   6.5290   6.5481   6.5561
     6.7705   6.8483   7.0939   7.1345   7.5154   7.5570   7.5860   7.6196
     7.6877   7.7067   7.7123   7.7780   7.8348

          k =-0.5000 0.2500 0.0000 (  6510 PWs)   bands (ev):

   -80.4981 -80.3876 -80.3835 -80.3747 -80.3495 -80.3422 -80.2853 -79.9897
   -46.7930 -46.7368 -46.5847 -46.5780 -46.5600 -46.5503 -46.5453 -46.4551
   -46.4524 -46.4473 -46.3960 -46.3954 -46.3780 -46.3286 -46.3196 -46.3017
   -46.2906 -46.2819 -46.2714 -46.2307 -46.2158 -46.0449 -46.0445 -46.0211
     2.4967   2.6370   2.8158   2.9749   3.1015   3.2510   3.3892   3.6470
     3.8174   3.8739   3.8995   4.1278   4.1992   4.2518   4.4232   4.5396
     4.5477   4.7292   4.7334   4.7890   5.2213   5.3721   5.4633   5.8597
     5.8995   6.3157   6.3682   6.3913   6.4628   6.5450   6.6158   6.6317
     6.7446   6.8004   6.8592   6.8975   6.9365   6.9605   7.1236   7.1333
     8.0245   8.0710   8.8182   8.8207   9.7519

          k =-0.5000-0.5000 0.0000 (  6576 PWs)   bands (ev):

   -80.4958 -80.3855 -80.3814 -80.3725 -80.3474 -80.3401 -80.2830 -79.9876
   -46.8203 -46.8203 -46.6044 -46.6044 -46.5406 -46.5406 -46.5088 -46.4542
   -46.4409 -46.4409 -46.4132 -46.4033 -46.3822 -46.3619 -46.3439 -46.3439
   -46.2904 -46.2719 -46.2719 -46.2171 -46.2171 -46.0457 -46.0448 -46.0448
     2.3539   2.5091   2.8900   2.9963   3.6209   3.6343   3.7487   3.7487
     3.9482   3.9482   3.9821   3.9821   4.1722   4.2362   4.2362   4.4003
     4.4571   4.4571   4.9474   4.9474   5.8106   5.8106   5.9906   6.3980
     6.5598   6.6279   6.6609   6.7178   6.7762   6.7996   6.8038   6.8045
     6.8080   6.8312   6.8468   6.8617   6.9251   7.0843   7.0843   7.1830
     8.0810   8.0810   9.7875   9.7875  11.6520

     the Fermi energy is     6.6497 ev

!    total energy              =   -2034.22315012 Ry
     estimated scf accuracy    <          1.7E-10 Ry
     smearing contrib. (-TS)   =      -0.01663614 Ry
     internal energy E=F+TS    =   -2034.20651398 Ry

     The total energy is F=E-TS. E is the sum of the following terms:
     one-electron contribution =  -14249.05781870 Ry
     hartree contribution      =    7148.28817126 Ry
     xc contribution           =    -277.28330644 Ry
     ewald contribution        =    5343.84643990 Ry

     convergence has been achieved in  61 iterations

     negative rho (up, down):  1.655E-03 0.000E+00

     Forces acting on atoms (cartesian axes, Ry/au):

     atom    1 type  1   force =    -0.00000000    0.00000000   -0.03263932
     atom    2 type  1   force =     0.00000000   -0.00000000    0.06377271
     atom    3 type  1   force =    -0.00000000    0.00000000    0.00872707
     atom    4 type  1   force =    -0.00000000    0.00000000    0.00152235
     atom    5 type  1   force =     0.00000000   -0.00000000   -0.00494641
     atom    6 type  1   force =    -0.00000000   -0.00000000   -0.01765403
     atom    7 type  1   force =     0.00000000    0.00000000   -0.00003670
     atom    8 type  1   force =     0.00000000   -0.00000000   -0.01874567

     Total force =     0.000037     Total SCF correction =     0.000004
     SCF correction compared to forces is large: reduce conv_thr to get better values
     Energy error            =      9.3E-05
     Gradient error          =      3.7E-05

     bfgs converged in   8 scf cycles and   7 bfgs steps
     (criteria: energy <  1.0E-04 Ry, force <  1.0E-03 Ry/Bohr)

     End of BFGS Geometry Optimization

     Final energy   =   -2034.2231501247 Ry

     File ./tmp/fe_clean_fe_surface.bfgs deleted, as requested
Begin final coordinates

ATOMIC_POSITIONS (angstrom)
Fe            0.0000000000        0.0000000000        2.1525000000    0   0   0
Fe            1.4350000000        1.4350000000        0.7175000000    0   0   0
Fe            0.0000000000        0.0000000000        5.0225000000    0   0   0
Fe            1.4350000000        1.4350000000        3.5875000000    0   0   0
Fe            0.0000000000        0.0000000000        7.8925000000    0   0   0
Fe            1.4350000000        1.4350000000        6.4575000000    0   0   0
Fe           -0.0000000275       -0.0000000139       10.3691795510
Fe            1.4350000000        1.4350000000        9.3275000000    0   0   0
End final coordinates



     Writing output data file ./tmp/fe_clean_fe_surface.save/

     init_run     :     15.08s CPU     15.71s WALL (       1 calls)
     electrons    :  18416.57s CPU  19387.30s WALL (       8 calls)
     update_pot   :      4.07s CPU      4.12s WALL (       7 calls)
     forces       :     76.69s CPU     79.39s WALL (       8 calls)

     Called by init_run:
     wfcinit      :     13.61s CPU     13.73s WALL (       1 calls)
     potinit      :      0.35s CPU      0.41s WALL (       1 calls)
     hinit0       :      0.35s CPU      0.37s WALL (       1 calls)

     Called by electrons:
     c_bands      :  15990.12s CPU  16661.97s WALL (     552 calls)
     sum_band     :   1906.87s CPU   2068.76s WALL (     552 calls)
     v_of_rho     :    127.35s CPU    135.24s WALL (     560 calls)
     newd         :    373.59s CPU    502.13s WALL (     560 calls)
     mix_rho      :     18.38s CPU     18.52s WALL (     552 calls)

     Called by c_bands:
     init_us_2    :     51.80s CPU     52.92s WALL (   11130 calls)
     cegterg      :  15550.38s CPU  16207.86s WALL (    5520 calls)

     Called by *egterg:
     cdiaghg      :    209.06s CPU    209.49s WALL (   18813 calls)
     h_psi        :   5909.30s CPU   5931.73s WALL (   18893 calls)
     s_psi        :   1807.29s CPU   1809.43s WALL (   18893 calls)
     g_psi        :     77.50s CPU     77.64s WALL (   13363 calls)

     Called by h_psi:
     h_psi:calbec :   2008.87s CPU   2010.61s WALL (   18893 calls)
     vloc_psi     :   2073.15s CPU   2088.50s WALL (   18893 calls)
     add_vuspsi   :   1805.86s CPU   1807.41s WALL (   18893 calls)

     General routines
     calbec       :   2975.17s CPU   2977.49s WALL (   24733 calls)
     fft          :     43.15s CPU     43.40s WALL (    7359 calls)
     ffts         :      1.76s CPU      1.76s WALL (    1112 calls)
     fftw         :   2077.11s CPU   2093.87s WALL ( 2303398 calls)
     interpolate  :      5.23s CPU      5.25s WALL (     560 calls)

     Parallel routines

     PWSCF        :      5h 8m CPU      5h24m WALL


   This run was terminated on:  16:25:12  28Aug2026            

=------------------------------------------------------------------------------=
   JOB DONE.
=------------------------------------------------------------------------------=
